[TITLE]
;; SWASHES thacker-radial-2d — Thacker radially-symmetric paraboloid oscillation (SWASHES 4.2.2 (radial)) — 2D strip 80x80 (edge ~0.05 m) for solver 2d-explicit

[OPTIONS]
FLOW_UNITS           CMS
INFILTRATION         HORTON
FLOW_ROUTING         DYNWAVE
LINK_OFFSETS         DEPTH
MIN_SLOPE            0
ALLOW_PONDING        NO
SKIP_STEADY_STATE    NO
THREADS              1
START_DATE           01/01/2026
START_TIME           00:00:00
REPORT_START_DATE    01/01/2026
REPORT_START_TIME    00:00:00
END_DATE             01/01/2026
END_TIME             0:00:07
REPORT_STEP          0.25
WET_STEP             0.25
DRY_STEP             0.25
ROUTING_STEP         0.25

[JUNCTIONS]
JD1     0     10        0          0         0

[OUTFALLS]
OD1     0     FREE          NO

[CONDUITS]
CD1     JD1   OD1  0.05   0.01   0   0   0

[XSECTIONS]
CD1     CIRCULAR  1.0    0      0      0      1

[COORDINATES]
JD1     4.0500   0.0000
OD1     4.1000   0.0000

[2D_OPTIONS]
INTEGRATOR             EXPLICIT
CFL_NUMBER             0.5
REPORT_2D              NO
OUTPUT_FILE            surface.h5
MAX_TIMESTEP           1.0
RAINFALL_MODE          NONE
DRY_DEPTH              0.0001
H_MOVE                 0.0001

[2D_VERTICES]
;; UNITS: SI (m)
;;X  Y  Z
0 -2 0.8
0.05 -2 0.78025
0.1 -2 0.761
0.15 -2 0.74225
0.2 -2 0.724
0.25 -2 0.70625
0.3 -2 0.689
0.35 -2 0.67225
0.4 -2 0.656
0.45 -2 0.64025
0.5 -2 0.625
0.55 -2 0.61025
0.6 -2 0.596
0.65 -2 0.58225
0.7 -2 0.569
0.75 -2 0.55625
0.8 -2 0.544
0.85 -2 0.53225
0.9 -2 0.521
0.95 -2 0.51025
1 -2 0.5
1.05 -2 0.49025
1.1 -2 0.481
1.15 -2 0.47225
1.2 -2 0.464
1.25 -2 0.45625
1.3 -2 0.449
1.35 -2 0.44225
1.4 -2 0.436
1.45 -2 0.43025
1.5 -2 0.425
1.55 -2 0.42025
1.6 -2 0.416
1.65 -2 0.41225
1.7 -2 0.409
1.75 -2 0.40625
1.8 -2 0.404
1.85 -2 0.40225
1.9 -2 0.401
1.95 -2 0.40025
2 -2 0.4
2.05 -2 0.40025
2.1 -2 0.401
2.15 -2 0.40225
2.2 -2 0.404
2.25 -2 0.40625
2.3 -2 0.409
2.35 -2 0.41225
2.4 -2 0.416
2.45 -2 0.42025
2.5 -2 0.425
2.55 -2 0.43025
2.6 -2 0.436
2.65 -2 0.44225
2.7 -2 0.449
2.75 -2 0.45625
2.8 -2 0.464
2.85 -2 0.47225
2.9 -2 0.481
2.95 -2 0.49025
3 -2 0.5
3.05 -2 0.51025
3.1 -2 0.521
3.15 -2 0.53225
3.2 -2 0.544
3.25 -2 0.55625
3.3 -2 0.569
3.35 -2 0.58225
3.4 -2 0.596
3.45 -2 0.61025
3.5 -2 0.625
3.55 -2 0.64025
3.6 -2 0.656
3.65 -2 0.67225
3.7 -2 0.689
3.75 -2 0.70625
3.8 -2 0.724
3.85 -2 0.74225
3.9 -2 0.761
3.95 -2 0.78025
4 -2 0.8
0 -1.95 0.78025
0.05 -1.95 0.7605
0.1 -1.95 0.74125
0.15 -1.95 0.7225
0.2 -1.95 0.70425
0.25 -1.95 0.6865
0.3 -1.95 0.66925
0.35 -1.95 0.6525
0.4 -1.95 0.63625
0.45 -1.95 0.6205
0.5 -1.95 0.60525
0.55 -1.95 0.5905
0.6 -1.95 0.57625
0.65 -1.95 0.5625
0.7 -1.95 0.54925
0.75 -1.95 0.5365
0.8 -1.95 0.52425
0.85 -1.95 0.5125
0.9 -1.95 0.50125
0.95 -1.95 0.4905
1 -1.95 0.48025
1.05 -1.95 0.4705
1.1 -1.95 0.46125
1.15 -1.95 0.4525
1.2 -1.95 0.44425
1.25 -1.95 0.4365
1.3 -1.95 0.42925
1.35 -1.95 0.4225
1.4 -1.95 0.41625
1.45 -1.95 0.4105
1.5 -1.95 0.40525
1.55 -1.95 0.4005
1.6 -1.95 0.39625
1.65 -1.95 0.3925
1.7 -1.95 0.38925
1.75 -1.95 0.3865
1.8 -1.95 0.38425
1.85 -1.95 0.3825
1.9 -1.95 0.38125
1.95 -1.95 0.3805
2 -1.95 0.38025
2.05 -1.95 0.3805
2.1 -1.95 0.38125
2.15 -1.95 0.3825
2.2 -1.95 0.38425
2.25 -1.95 0.3865
2.3 -1.95 0.38925
2.35 -1.95 0.3925
2.4 -1.95 0.39625
2.45 -1.95 0.4005
2.5 -1.95 0.40525
2.55 -1.95 0.4105
2.6 -1.95 0.41625
2.65 -1.95 0.4225
2.7 -1.95 0.42925
2.75 -1.95 0.4365
2.8 -1.95 0.44425
2.85 -1.95 0.4525
2.9 -1.95 0.46125
2.95 -1.95 0.4705
3 -1.95 0.48025
3.05 -1.95 0.4905
3.1 -1.95 0.50125
3.15 -1.95 0.5125
3.2 -1.95 0.52425
3.25 -1.95 0.5365
3.3 -1.95 0.54925
3.35 -1.95 0.5625
3.4 -1.95 0.57625
3.45 -1.95 0.5905
3.5 -1.95 0.60525
3.55 -1.95 0.6205
3.6 -1.95 0.63625
3.65 -1.95 0.6525
3.7 -1.95 0.66925
3.75 -1.95 0.6865
3.8 -1.95 0.70425
3.85 -1.95 0.7225
3.9 -1.95 0.74125
3.95 -1.95 0.7605
4 -1.95 0.78025
0 -1.9 0.761
0.05 -1.9 0.74125
0.1 -1.9 0.722
0.15 -1.9 0.70325
0.2 -1.9 0.685
0.25 -1.9 0.66725
0.3 -1.9 0.65
0.35 -1.9 0.63325
0.4 -1.9 0.617
0.45 -1.9 0.60125
0.5 -1.9 0.586
0.55 -1.9 0.57125
0.6 -1.9 0.557
0.65 -1.9 0.54325
0.7 -1.9 0.53
0.75 -1.9 0.51725
0.8 -1.9 0.505
0.85 -1.9 0.49325
0.9 -1.9 0.482
0.95 -1.9 0.47125
1 -1.9 0.461
1.05 -1.9 0.45125
1.1 -1.9 0.442
1.15 -1.9 0.43325
1.2 -1.9 0.425
1.25 -1.9 0.41725
1.3 -1.9 0.41
1.35 -1.9 0.40325
1.4 -1.9 0.397
1.45 -1.9 0.39125
1.5 -1.9 0.386
1.55 -1.9 0.38125
1.6 -1.9 0.377
1.65 -1.9 0.37325
1.7 -1.9 0.37
1.75 -1.9 0.36725
1.8 -1.9 0.365
1.85 -1.9 0.36325
1.9 -1.9 0.362
1.95 -1.9 0.36125
2 -1.9 0.361
2.05 -1.9 0.36125
2.1 -1.9 0.362
2.15 -1.9 0.36325
2.2 -1.9 0.365
2.25 -1.9 0.36725
2.3 -1.9 0.37
2.35 -1.9 0.37325
2.4 -1.9 0.377
2.45 -1.9 0.38125
2.5 -1.9 0.386
2.55 -1.9 0.39125
2.6 -1.9 0.397
2.65 -1.9 0.40325
2.7 -1.9 0.41
2.75 -1.9 0.41725
2.8 -1.9 0.425
2.85 -1.9 0.43325
2.9 -1.9 0.442
2.95 -1.9 0.45125
3 -1.9 0.461
3.05 -1.9 0.47125
3.1 -1.9 0.482
3.15 -1.9 0.49325
3.2 -1.9 0.505
3.25 -1.9 0.51725
3.3 -1.9 0.53
3.35 -1.9 0.54325
3.4 -1.9 0.557
3.45 -1.9 0.57125
3.5 -1.9 0.586
3.55 -1.9 0.60125
3.6 -1.9 0.617
3.65 -1.9 0.63325
3.7 -1.9 0.65
3.75 -1.9 0.66725
3.8 -1.9 0.685
3.85 -1.9 0.70325
3.9 -1.9 0.722
3.95 -1.9 0.74125
4 -1.9 0.761
0 -1.85 0.74225
0.05 -1.85 0.7225
0.1 -1.85 0.70325
0.15 -1.85 0.6845
0.2 -1.85 0.66625
0.25 -1.85 0.6485
0.3 -1.85 0.63125
0.35 -1.85 0.6145
0.4 -1.85 0.59825
0.45 -1.85 0.5825
0.5 -1.85 0.56725
0.55 -1.85 0.5525
0.6 -1.85 0.53825
0.65 -1.85 0.5245
0.7 -1.85 0.51125
0.75 -1.85 0.4985
0.8 -1.85 0.48625
0.85 -1.85 0.4745
0.9 -1.85 0.46325
0.95 -1.85 0.4525
1 -1.85 0.44225
1.05 -1.85 0.4325
1.1 -1.85 0.42325
1.15 -1.85 0.4145
1.2 -1.85 0.40625
1.25 -1.85 0.3985
1.3 -1.85 0.39125
1.35 -1.85 0.3845
1.4 -1.85 0.37825
1.45 -1.85 0.3725
1.5 -1.85 0.36725
1.55 -1.85 0.3625
1.6 -1.85 0.35825
1.65 -1.85 0.3545
1.7 -1.85 0.35125
1.75 -1.85 0.3485
1.8 -1.85 0.34625
1.85 -1.85 0.3445
1.9 -1.85 0.34325
1.95 -1.85 0.3425
2 -1.85 0.34225
2.05 -1.85 0.3425
2.1 -1.85 0.34325
2.15 -1.85 0.3445
2.2 -1.85 0.34625
2.25 -1.85 0.3485
2.3 -1.85 0.35125
2.35 -1.85 0.3545
2.4 -1.85 0.35825
2.45 -1.85 0.3625
2.5 -1.85 0.36725
2.55 -1.85 0.3725
2.6 -1.85 0.37825
2.65 -1.85 0.3845
2.7 -1.85 0.39125
2.75 -1.85 0.3985
2.8 -1.85 0.40625
2.85 -1.85 0.4145
2.9 -1.85 0.42325
2.95 -1.85 0.4325
3 -1.85 0.44225
3.05 -1.85 0.4525
3.1 -1.85 0.46325
3.15 -1.85 0.4745
3.2 -1.85 0.48625
3.25 -1.85 0.4985
3.3 -1.85 0.51125
3.35 -1.85 0.5245
3.4 -1.85 0.53825
3.45 -1.85 0.5525
3.5 -1.85 0.56725
3.55 -1.85 0.5825
3.6 -1.85 0.59825
3.65 -1.85 0.6145
3.7 -1.85 0.63125
3.75 -1.85 0.6485
3.8 -1.85 0.66625
3.85 -1.85 0.6845
3.9 -1.85 0.70325
3.95 -1.85 0.7225
4 -1.85 0.74225
0 -1.8 0.724
0.05 -1.8 0.70425
0.1 -1.8 0.685
0.15 -1.8 0.66625
0.2 -1.8 0.648
0.25 -1.8 0.63025
0.3 -1.8 0.613
0.35 -1.8 0.59625
0.4 -1.8 0.58
0.45 -1.8 0.56425
0.5 -1.8 0.549
0.55 -1.8 0.53425
0.6 -1.8 0.52
0.65 -1.8 0.50625
0.7 -1.8 0.493
0.75 -1.8 0.48025
0.8 -1.8 0.468
0.85 -1.8 0.45625
0.9 -1.8 0.445
0.95 -1.8 0.43425
1 -1.8 0.424
1.05 -1.8 0.41425
1.1 -1.8 0.405
1.15 -1.8 0.39625
1.2 -1.8 0.388
1.25 -1.8 0.38025
1.3 -1.8 0.373
1.35 -1.8 0.36625
1.4 -1.8 0.36
1.45 -1.8 0.35425
1.5 -1.8 0.349
1.55 -1.8 0.34425
1.6 -1.8 0.34
1.65 -1.8 0.33625
1.7 -1.8 0.333
1.75 -1.8 0.33025
1.8 -1.8 0.328
1.85 -1.8 0.32625
1.9 -1.8 0.325
1.95 -1.8 0.32425
2 -1.8 0.324
2.05 -1.8 0.32425
2.1 -1.8 0.325
2.15 -1.8 0.32625
2.2 -1.8 0.328
2.25 -1.8 0.33025
2.3 -1.8 0.333
2.35 -1.8 0.33625
2.4 -1.8 0.34
2.45 -1.8 0.34425
2.5 -1.8 0.349
2.55 -1.8 0.35425
2.6 -1.8 0.36
2.65 -1.8 0.36625
2.7 -1.8 0.373
2.75 -1.8 0.38025
2.8 -1.8 0.388
2.85 -1.8 0.39625
2.9 -1.8 0.405
2.95 -1.8 0.41425
3 -1.8 0.424
3.05 -1.8 0.43425
3.1 -1.8 0.445
3.15 -1.8 0.45625
3.2 -1.8 0.468
3.25 -1.8 0.48025
3.3 -1.8 0.493
3.35 -1.8 0.50625
3.4 -1.8 0.52
3.45 -1.8 0.53425
3.5 -1.8 0.549
3.55 -1.8 0.56425
3.6 -1.8 0.58
3.65 -1.8 0.59625
3.7 -1.8 0.613
3.75 -1.8 0.63025
3.8 -1.8 0.648
3.85 -1.8 0.66625
3.9 -1.8 0.685
3.95 -1.8 0.70425
4 -1.8 0.724
0 -1.75 0.70625
0.05 -1.75 0.6865
0.1 -1.75 0.66725
0.15 -1.75 0.6485
0.2 -1.75 0.63025
0.25 -1.75 0.6125
0.3 -1.75 0.59525
0.35 -1.75 0.5785
0.4 -1.75 0.56225
0.45 -1.75 0.5465
0.5 -1.75 0.53125
0.55 -1.75 0.5165
0.6 -1.75 0.50225
0.65 -1.75 0.4885
0.7 -1.75 0.47525
0.75 -1.75 0.4625
0.8 -1.75 0.45025
0.85 -1.75 0.4385
0.9 -1.75 0.42725
0.95 -1.75 0.4165
1 -1.75 0.40625
1.05 -1.75 0.3965
1.1 -1.75 0.38725
1.15 -1.75 0.3785
1.2 -1.75 0.37025
1.25 -1.75 0.3625
1.3 -1.75 0.35525
1.35 -1.75 0.3485
1.4 -1.75 0.34225
1.45 -1.75 0.3365
1.5 -1.75 0.33125
1.55 -1.75 0.3265
1.6 -1.75 0.32225
1.65 -1.75 0.3185
1.7 -1.75 0.31525
1.75 -1.75 0.3125
1.8 -1.75 0.31025
1.85 -1.75 0.3085
1.9 -1.75 0.30725
1.95 -1.75 0.3065
2 -1.75 0.30625
2.05 -1.75 0.3065
2.1 -1.75 0.30725
2.15 -1.75 0.3085
2.2 -1.75 0.31025
2.25 -1.75 0.3125
2.3 -1.75 0.31525
2.35 -1.75 0.3185
2.4 -1.75 0.32225
2.45 -1.75 0.3265
2.5 -1.75 0.33125
2.55 -1.75 0.3365
2.6 -1.75 0.34225
2.65 -1.75 0.3485
2.7 -1.75 0.35525
2.75 -1.75 0.3625
2.8 -1.75 0.37025
2.85 -1.75 0.3785
2.9 -1.75 0.38725
2.95 -1.75 0.3965
3 -1.75 0.40625
3.05 -1.75 0.4165
3.1 -1.75 0.42725
3.15 -1.75 0.4385
3.2 -1.75 0.45025
3.25 -1.75 0.4625
3.3 -1.75 0.47525
3.35 -1.75 0.4885
3.4 -1.75 0.50225
3.45 -1.75 0.5165
3.5 -1.75 0.53125
3.55 -1.75 0.5465
3.6 -1.75 0.56225
3.65 -1.75 0.5785
3.7 -1.75 0.59525
3.75 -1.75 0.6125
3.8 -1.75 0.63025
3.85 -1.75 0.6485
3.9 -1.75 0.66725
3.95 -1.75 0.6865
4 -1.75 0.70625
0 -1.7 0.689
0.05 -1.7 0.66925
0.1 -1.7 0.65
0.15 -1.7 0.63125
0.2 -1.7 0.613
0.25 -1.7 0.59525
0.3 -1.7 0.578
0.35 -1.7 0.56125
0.4 -1.7 0.545
0.45 -1.7 0.52925
0.5 -1.7 0.514
0.55 -1.7 0.49925
0.6 -1.7 0.485
0.65 -1.7 0.47125
0.7 -1.7 0.458
0.75 -1.7 0.44525
0.8 -1.7 0.433
0.85 -1.7 0.42125
0.9 -1.7 0.41
0.95 -1.7 0.39925
1 -1.7 0.389
1.05 -1.7 0.37925
1.1 -1.7 0.37
1.15 -1.7 0.36125
1.2 -1.7 0.353
1.25 -1.7 0.34525
1.3 -1.7 0.338
1.35 -1.7 0.33125
1.4 -1.7 0.325
1.45 -1.7 0.31925
1.5 -1.7 0.314
1.55 -1.7 0.30925
1.6 -1.7 0.305
1.65 -1.7 0.30125
1.7 -1.7 0.298
1.75 -1.7 0.29525
1.8 -1.7 0.293
1.85 -1.7 0.29125
1.9 -1.7 0.29
1.95 -1.7 0.28925
2 -1.7 0.289
2.05 -1.7 0.28925
2.1 -1.7 0.29
2.15 -1.7 0.29125
2.2 -1.7 0.293
2.25 -1.7 0.29525
2.3 -1.7 0.298
2.35 -1.7 0.30125
2.4 -1.7 0.305
2.45 -1.7 0.30925
2.5 -1.7 0.314
2.55 -1.7 0.31925
2.6 -1.7 0.325
2.65 -1.7 0.33125
2.7 -1.7 0.338
2.75 -1.7 0.34525
2.8 -1.7 0.353
2.85 -1.7 0.36125
2.9 -1.7 0.37
2.95 -1.7 0.37925
3 -1.7 0.389
3.05 -1.7 0.39925
3.1 -1.7 0.41
3.15 -1.7 0.42125
3.2 -1.7 0.433
3.25 -1.7 0.44525
3.3 -1.7 0.458
3.35 -1.7 0.47125
3.4 -1.7 0.485
3.45 -1.7 0.49925
3.5 -1.7 0.514
3.55 -1.7 0.52925
3.6 -1.7 0.545
3.65 -1.7 0.56125
3.7 -1.7 0.578
3.75 -1.7 0.59525
3.8 -1.7 0.613
3.85 -1.7 0.63125
3.9 -1.7 0.65
3.95 -1.7 0.66925
4 -1.7 0.689
0 -1.65 0.67225
0.05 -1.65 0.6525
0.1 -1.65 0.63325
0.15 -1.65 0.6145
0.2 -1.65 0.59625
0.25 -1.65 0.5785
0.3 -1.65 0.56125
0.35 -1.65 0.5445
0.4 -1.65 0.52825
0.45 -1.65 0.5125
0.5 -1.65 0.49725
0.55 -1.65 0.4825
0.6 -1.65 0.46825
0.65 -1.65 0.4545
0.7 -1.65 0.44125
0.75 -1.65 0.4285
0.8 -1.65 0.41625
0.85 -1.65 0.4045
0.9 -1.65 0.39325
0.95 -1.65 0.3825
1 -1.65 0.37225
1.05 -1.65 0.3625
1.1 -1.65 0.35325
1.15 -1.65 0.3445
1.2 -1.65 0.33625
1.25 -1.65 0.3285
1.3 -1.65 0.32125
1.35 -1.65 0.3145
1.4 -1.65 0.30825
1.45 -1.65 0.3025
1.5 -1.65 0.29725
1.55 -1.65 0.2925
1.6 -1.65 0.28825
1.65 -1.65 0.2845
1.7 -1.65 0.28125
1.75 -1.65 0.2785
1.8 -1.65 0.27625
1.85 -1.65 0.2745
1.9 -1.65 0.27325
1.95 -1.65 0.2725
2 -1.65 0.27225
2.05 -1.65 0.2725
2.1 -1.65 0.27325
2.15 -1.65 0.2745
2.2 -1.65 0.27625
2.25 -1.65 0.2785
2.3 -1.65 0.28125
2.35 -1.65 0.2845
2.4 -1.65 0.28825
2.45 -1.65 0.2925
2.5 -1.65 0.29725
2.55 -1.65 0.3025
2.6 -1.65 0.30825
2.65 -1.65 0.3145
2.7 -1.65 0.32125
2.75 -1.65 0.3285
2.8 -1.65 0.33625
2.85 -1.65 0.3445
2.9 -1.65 0.35325
2.95 -1.65 0.3625
3 -1.65 0.37225
3.05 -1.65 0.3825
3.1 -1.65 0.39325
3.15 -1.65 0.4045
3.2 -1.65 0.41625
3.25 -1.65 0.4285
3.3 -1.65 0.44125
3.35 -1.65 0.4545
3.4 -1.65 0.46825
3.45 -1.65 0.4825
3.5 -1.65 0.49725
3.55 -1.65 0.5125
3.6 -1.65 0.52825
3.65 -1.65 0.5445
3.7 -1.65 0.56125
3.75 -1.65 0.5785
3.8 -1.65 0.59625
3.85 -1.65 0.6145
3.9 -1.65 0.63325
3.95 -1.65 0.6525
4 -1.65 0.67225
0 -1.6 0.656
0.05 -1.6 0.63625
0.1 -1.6 0.617
0.15 -1.6 0.59825
0.2 -1.6 0.58
0.25 -1.6 0.56225
0.3 -1.6 0.545
0.35 -1.6 0.52825
0.4 -1.6 0.512
0.45 -1.6 0.49625
0.5 -1.6 0.481
0.55 -1.6 0.46625
0.6 -1.6 0.452
0.65 -1.6 0.43825
0.7 -1.6 0.425
0.75 -1.6 0.41225
0.8 -1.6 0.4
0.85 -1.6 0.38825
0.9 -1.6 0.377
0.95 -1.6 0.36625
1 -1.6 0.356
1.05 -1.6 0.34625
1.1 -1.6 0.337
1.15 -1.6 0.32825
1.2 -1.6 0.32
1.25 -1.6 0.31225
1.3 -1.6 0.305
1.35 -1.6 0.29825
1.4 -1.6 0.292
1.45 -1.6 0.28625
1.5 -1.6 0.281
1.55 -1.6 0.27625
1.6 -1.6 0.272
1.65 -1.6 0.26825
1.7 -1.6 0.265
1.75 -1.6 0.26225
1.8 -1.6 0.26
1.85 -1.6 0.25825
1.9 -1.6 0.257
1.95 -1.6 0.25625
2 -1.6 0.256
2.05 -1.6 0.25625
2.1 -1.6 0.257
2.15 -1.6 0.25825
2.2 -1.6 0.26
2.25 -1.6 0.26225
2.3 -1.6 0.265
2.35 -1.6 0.26825
2.4 -1.6 0.272
2.45 -1.6 0.27625
2.5 -1.6 0.281
2.55 -1.6 0.28625
2.6 -1.6 0.292
2.65 -1.6 0.29825
2.7 -1.6 0.305
2.75 -1.6 0.31225
2.8 -1.6 0.32
2.85 -1.6 0.32825
2.9 -1.6 0.337
2.95 -1.6 0.34625
3 -1.6 0.356
3.05 -1.6 0.36625
3.1 -1.6 0.377
3.15 -1.6 0.38825
3.2 -1.6 0.4
3.25 -1.6 0.41225
3.3 -1.6 0.425
3.35 -1.6 0.43825
3.4 -1.6 0.452
3.45 -1.6 0.46625
3.5 -1.6 0.481
3.55 -1.6 0.49625
3.6 -1.6 0.512
3.65 -1.6 0.52825
3.7 -1.6 0.545
3.75 -1.6 0.56225
3.8 -1.6 0.58
3.85 -1.6 0.59825
3.9 -1.6 0.617
3.95 -1.6 0.63625
4 -1.6 0.656
0 -1.55 0.64025
0.05 -1.55 0.6205
0.1 -1.55 0.60125
0.15 -1.55 0.5825
0.2 -1.55 0.56425
0.25 -1.55 0.5465
0.3 -1.55 0.52925
0.35 -1.55 0.5125
0.4 -1.55 0.49625
0.45 -1.55 0.4805
0.5 -1.55 0.46525
0.55 -1.55 0.4505
0.6 -1.55 0.43625
0.65 -1.55 0.4225
0.7 -1.55 0.40925
0.75 -1.55 0.3965
0.8 -1.55 0.38425
0.85 -1.55 0.3725
0.9 -1.55 0.36125
0.95 -1.55 0.3505
1 -1.55 0.34025
1.05 -1.55 0.3305
1.1 -1.55 0.32125
1.15 -1.55 0.3125
1.2 -1.55 0.30425
1.25 -1.55 0.2965
1.3 -1.55 0.28925
1.35 -1.55 0.2825
1.4 -1.55 0.27625
1.45 -1.55 0.2705
1.5 -1.55 0.26525
1.55 -1.55 0.2605
1.6 -1.55 0.25625
1.65 -1.55 0.2525
1.7 -1.55 0.24925
1.75 -1.55 0.2465
1.8 -1.55 0.24425
1.85 -1.55 0.2425
1.9 -1.55 0.24125
1.95 -1.55 0.2405
2 -1.55 0.24025
2.05 -1.55 0.2405
2.1 -1.55 0.24125
2.15 -1.55 0.2425
2.2 -1.55 0.24425
2.25 -1.55 0.2465
2.3 -1.55 0.24925
2.35 -1.55 0.2525
2.4 -1.55 0.25625
2.45 -1.55 0.2605
2.5 -1.55 0.26525
2.55 -1.55 0.2705
2.6 -1.55 0.27625
2.65 -1.55 0.2825
2.7 -1.55 0.28925
2.75 -1.55 0.2965
2.8 -1.55 0.30425
2.85 -1.55 0.3125
2.9 -1.55 0.32125
2.95 -1.55 0.3305
3 -1.55 0.34025
3.05 -1.55 0.3505
3.1 -1.55 0.36125
3.15 -1.55 0.3725
3.2 -1.55 0.38425
3.25 -1.55 0.3965
3.3 -1.55 0.40925
3.35 -1.55 0.4225
3.4 -1.55 0.43625
3.45 -1.55 0.4505
3.5 -1.55 0.46525
3.55 -1.55 0.4805
3.6 -1.55 0.49625
3.65 -1.55 0.5125
3.7 -1.55 0.52925
3.75 -1.55 0.5465
3.8 -1.55 0.56425
3.85 -1.55 0.5825
3.9 -1.55 0.60125
3.95 -1.55 0.6205
4 -1.55 0.64025
0 -1.5 0.625
0.05 -1.5 0.60525
0.1 -1.5 0.586
0.15 -1.5 0.56725
0.2 -1.5 0.549
0.25 -1.5 0.53125
0.3 -1.5 0.514
0.35 -1.5 0.49725
0.4 -1.5 0.481
0.45 -1.5 0.46525
0.5 -1.5 0.45
0.55 -1.5 0.43525
0.6 -1.5 0.421
0.65 -1.5 0.40725
0.7 -1.5 0.394
0.75 -1.5 0.38125
0.8 -1.5 0.369
0.85 -1.5 0.35725
0.9 -1.5 0.346
0.95 -1.5 0.33525
1 -1.5 0.325
1.05 -1.5 0.31525
1.1 -1.5 0.306
1.15 -1.5 0.29725
1.2 -1.5 0.289
1.25 -1.5 0.28125
1.3 -1.5 0.274
1.35 -1.5 0.26725
1.4 -1.5 0.261
1.45 -1.5 0.25525
1.5 -1.5 0.25
1.55 -1.5 0.24525
1.6 -1.5 0.241
1.65 -1.5 0.23725
1.7 -1.5 0.234
1.75 -1.5 0.23125
1.8 -1.5 0.229
1.85 -1.5 0.22725
1.9 -1.5 0.226
1.95 -1.5 0.22525
2 -1.5 0.225
2.05 -1.5 0.22525
2.1 -1.5 0.226
2.15 -1.5 0.22725
2.2 -1.5 0.229
2.25 -1.5 0.23125
2.3 -1.5 0.234
2.35 -1.5 0.23725
2.4 -1.5 0.241
2.45 -1.5 0.24525
2.5 -1.5 0.25
2.55 -1.5 0.25525
2.6 -1.5 0.261
2.65 -1.5 0.26725
2.7 -1.5 0.274
2.75 -1.5 0.28125
2.8 -1.5 0.289
2.85 -1.5 0.29725
2.9 -1.5 0.306
2.95 -1.5 0.31525
3 -1.5 0.325
3.05 -1.5 0.33525
3.1 -1.5 0.346
3.15 -1.5 0.35725
3.2 -1.5 0.369
3.25 -1.5 0.38125
3.3 -1.5 0.394
3.35 -1.5 0.40725
3.4 -1.5 0.421
3.45 -1.5 0.43525
3.5 -1.5 0.45
3.55 -1.5 0.46525
3.6 -1.5 0.481
3.65 -1.5 0.49725
3.7 -1.5 0.514
3.75 -1.5 0.53125
3.8 -1.5 0.549
3.85 -1.5 0.56725
3.9 -1.5 0.586
3.95 -1.5 0.60525
4 -1.5 0.625
0 -1.45 0.61025
0.05 -1.45 0.5905
0.1 -1.45 0.57125
0.15 -1.45 0.5525
0.2 -1.45 0.53425
0.25 -1.45 0.5165
0.3 -1.45 0.49925
0.35 -1.45 0.4825
0.4 -1.45 0.46625
0.45 -1.45 0.4505
0.5 -1.45 0.43525
0.55 -1.45 0.4205
0.6 -1.45 0.40625
0.65 -1.45 0.3925
0.7 -1.45 0.37925
0.75 -1.45 0.3665
0.8 -1.45 0.35425
0.85 -1.45 0.3425
0.9 -1.45 0.33125
0.95 -1.45 0.3205
1 -1.45 0.31025
1.05 -1.45 0.3005
1.1 -1.45 0.29125
1.15 -1.45 0.2825
1.2 -1.45 0.27425
1.25 -1.45 0.2665
1.3 -1.45 0.25925
1.35 -1.45 0.2525
1.4 -1.45 0.24625
1.45 -1.45 0.2405
1.5 -1.45 0.23525
1.55 -1.45 0.2305
1.6 -1.45 0.22625
1.65 -1.45 0.2225
1.7 -1.45 0.21925
1.75 -1.45 0.2165
1.8 -1.45 0.21425
1.85 -1.45 0.2125
1.9 -1.45 0.21125
1.95 -1.45 0.2105
2 -1.45 0.21025
2.05 -1.45 0.2105
2.1 -1.45 0.21125
2.15 -1.45 0.2125
2.2 -1.45 0.21425
2.25 -1.45 0.2165
2.3 -1.45 0.21925
2.35 -1.45 0.2225
2.4 -1.45 0.22625
2.45 -1.45 0.2305
2.5 -1.45 0.23525
2.55 -1.45 0.2405
2.6 -1.45 0.24625
2.65 -1.45 0.2525
2.7 -1.45 0.25925
2.75 -1.45 0.2665
2.8 -1.45 0.27425
2.85 -1.45 0.2825
2.9 -1.45 0.29125
2.95 -1.45 0.3005
3 -1.45 0.31025
3.05 -1.45 0.3205
3.1 -1.45 0.33125
3.15 -1.45 0.3425
3.2 -1.45 0.35425
3.25 -1.45 0.3665
3.3 -1.45 0.37925
3.35 -1.45 0.3925
3.4 -1.45 0.40625
3.45 -1.45 0.4205
3.5 -1.45 0.43525
3.55 -1.45 0.4505
3.6 -1.45 0.46625
3.65 -1.45 0.4825
3.7 -1.45 0.49925
3.75 -1.45 0.5165
3.8 -1.45 0.53425
3.85 -1.45 0.5525
3.9 -1.45 0.57125
3.95 -1.45 0.5905
4 -1.45 0.61025
0 -1.4 0.596
0.05 -1.4 0.57625
0.1 -1.4 0.557
0.15 -1.4 0.53825
0.2 -1.4 0.52
0.25 -1.4 0.50225
0.3 -1.4 0.485
0.35 -1.4 0.46825
0.4 -1.4 0.452
0.45 -1.4 0.43625
0.5 -1.4 0.421
0.55 -1.4 0.40625
0.6 -1.4 0.392
0.65 -1.4 0.37825
0.7 -1.4 0.365
0.75 -1.4 0.35225
0.8 -1.4 0.34
0.85 -1.4 0.32825
0.9 -1.4 0.317
0.95 -1.4 0.30625
1 -1.4 0.296
1.05 -1.4 0.28625
1.1 -1.4 0.277
1.15 -1.4 0.26825
1.2 -1.4 0.26
1.25 -1.4 0.25225
1.3 -1.4 0.245
1.35 -1.4 0.23825
1.4 -1.4 0.232
1.45 -1.4 0.22625
1.5 -1.4 0.221
1.55 -1.4 0.21625
1.6 -1.4 0.212
1.65 -1.4 0.20825
1.7 -1.4 0.205
1.75 -1.4 0.20225
1.8 -1.4 0.2
1.85 -1.4 0.19825
1.9 -1.4 0.197
1.95 -1.4 0.19625
2 -1.4 0.196
2.05 -1.4 0.19625
2.1 -1.4 0.197
2.15 -1.4 0.19825
2.2 -1.4 0.2
2.25 -1.4 0.20225
2.3 -1.4 0.205
2.35 -1.4 0.20825
2.4 -1.4 0.212
2.45 -1.4 0.21625
2.5 -1.4 0.221
2.55 -1.4 0.22625
2.6 -1.4 0.232
2.65 -1.4 0.23825
2.7 -1.4 0.245
2.75 -1.4 0.25225
2.8 -1.4 0.26
2.85 -1.4 0.26825
2.9 -1.4 0.277
2.95 -1.4 0.28625
3 -1.4 0.296
3.05 -1.4 0.30625
3.1 -1.4 0.317
3.15 -1.4 0.32825
3.2 -1.4 0.34
3.25 -1.4 0.35225
3.3 -1.4 0.365
3.35 -1.4 0.37825
3.4 -1.4 0.392
3.45 -1.4 0.40625
3.5 -1.4 0.421
3.55 -1.4 0.43625
3.6 -1.4 0.452
3.65 -1.4 0.46825
3.7 -1.4 0.485
3.75 -1.4 0.50225
3.8 -1.4 0.52
3.85 -1.4 0.53825
3.9 -1.4 0.557
3.95 -1.4 0.57625
4 -1.4 0.596
0 -1.35 0.58225
0.05 -1.35 0.5625
0.1 -1.35 0.54325
0.15 -1.35 0.5245
0.2 -1.35 0.50625
0.25 -1.35 0.4885
0.3 -1.35 0.47125
0.35 -1.35 0.4545
0.4 -1.35 0.43825
0.45 -1.35 0.4225
0.5 -1.35 0.40725
0.55 -1.35 0.3925
0.6 -1.35 0.37825
0.65 -1.35 0.3645
0.7 -1.35 0.35125
0.75 -1.35 0.3385
0.8 -1.35 0.32625
0.85 -1.35 0.3145
0.9 -1.35 0.30325
0.95 -1.35 0.2925
1 -1.35 0.28225
1.05 -1.35 0.2725
1.1 -1.35 0.26325
1.15 -1.35 0.2545
1.2 -1.35 0.24625
1.25 -1.35 0.2385
1.3 -1.35 0.23125
1.35 -1.35 0.2245
1.4 -1.35 0.21825
1.45 -1.35 0.2125
1.5 -1.35 0.20725
1.55 -1.35 0.2025
1.6 -1.35 0.19825
1.65 -1.35 0.1945
1.7 -1.35 0.19125
1.75 -1.35 0.1885
1.8 -1.35 0.18625
1.85 -1.35 0.1845
1.9 -1.35 0.18325
1.95 -1.35 0.1825
2 -1.35 0.18225
2.05 -1.35 0.1825
2.1 -1.35 0.18325
2.15 -1.35 0.1845
2.2 -1.35 0.18625
2.25 -1.35 0.1885
2.3 -1.35 0.19125
2.35 -1.35 0.1945
2.4 -1.35 0.19825
2.45 -1.35 0.2025
2.5 -1.35 0.20725
2.55 -1.35 0.2125
2.6 -1.35 0.21825
2.65 -1.35 0.2245
2.7 -1.35 0.23125
2.75 -1.35 0.2385
2.8 -1.35 0.24625
2.85 -1.35 0.2545
2.9 -1.35 0.26325
2.95 -1.35 0.2725
3 -1.35 0.28225
3.05 -1.35 0.2925
3.1 -1.35 0.30325
3.15 -1.35 0.3145
3.2 -1.35 0.32625
3.25 -1.35 0.3385
3.3 -1.35 0.35125
3.35 -1.35 0.3645
3.4 -1.35 0.37825
3.45 -1.35 0.3925
3.5 -1.35 0.40725
3.55 -1.35 0.4225
3.6 -1.35 0.43825
3.65 -1.35 0.4545
3.7 -1.35 0.47125
3.75 -1.35 0.4885
3.8 -1.35 0.50625
3.85 -1.35 0.5245
3.9 -1.35 0.54325
3.95 -1.35 0.5625
4 -1.35 0.58225
0 -1.3 0.569
0.05 -1.3 0.54925
0.1 -1.3 0.53
0.15 -1.3 0.51125
0.2 -1.3 0.493
0.25 -1.3 0.47525
0.3 -1.3 0.458
0.35 -1.3 0.44125
0.4 -1.3 0.425
0.45 -1.3 0.40925
0.5 -1.3 0.394
0.55 -1.3 0.37925
0.6 -1.3 0.365
0.65 -1.3 0.35125
0.7 -1.3 0.338
0.75 -1.3 0.32525
0.8 -1.3 0.313
0.85 -1.3 0.30125
0.9 -1.3 0.29
0.95 -1.3 0.27925
1 -1.3 0.269
1.05 -1.3 0.25925
1.1 -1.3 0.25
1.15 -1.3 0.24125
1.2 -1.3 0.233
1.25 -1.3 0.22525
1.3 -1.3 0.218
1.35 -1.3 0.21125
1.4 -1.3 0.205
1.45 -1.3 0.19925
1.5 -1.3 0.194
1.55 -1.3 0.18925
1.6 -1.3 0.185
1.65 -1.3 0.18125
1.7 -1.3 0.178
1.75 -1.3 0.17525
1.8 -1.3 0.173
1.85 -1.3 0.17125
1.9 -1.3 0.17
1.95 -1.3 0.16925
2 -1.3 0.169
2.05 -1.3 0.16925
2.1 -1.3 0.17
2.15 -1.3 0.17125
2.2 -1.3 0.173
2.25 -1.3 0.17525
2.3 -1.3 0.178
2.35 -1.3 0.18125
2.4 -1.3 0.185
2.45 -1.3 0.18925
2.5 -1.3 0.194
2.55 -1.3 0.19925
2.6 -1.3 0.205
2.65 -1.3 0.21125
2.7 -1.3 0.218
2.75 -1.3 0.22525
2.8 -1.3 0.233
2.85 -1.3 0.24125
2.9 -1.3 0.25
2.95 -1.3 0.25925
3 -1.3 0.269
3.05 -1.3 0.27925
3.1 -1.3 0.29
3.15 -1.3 0.30125
3.2 -1.3 0.313
3.25 -1.3 0.32525
3.3 -1.3 0.338
3.35 -1.3 0.35125
3.4 -1.3 0.365
3.45 -1.3 0.37925
3.5 -1.3 0.394
3.55 -1.3 0.40925
3.6 -1.3 0.425
3.65 -1.3 0.44125
3.7 -1.3 0.458
3.75 -1.3 0.47525
3.8 -1.3 0.493
3.85 -1.3 0.51125
3.9 -1.3 0.53
3.95 -1.3 0.54925
4 -1.3 0.569
0 -1.25 0.55625
0.05 -1.25 0.5365
0.1 -1.25 0.51725
0.15 -1.25 0.4985
0.2 -1.25 0.48025
0.25 -1.25 0.4625
0.3 -1.25 0.44525
0.35 -1.25 0.4285
0.4 -1.25 0.41225
0.45 -1.25 0.3965
0.5 -1.25 0.38125
0.55 -1.25 0.3665
0.6 -1.25 0.35225
0.65 -1.25 0.3385
0.7 -1.25 0.32525
0.75 -1.25 0.3125
0.8 -1.25 0.30025
0.85 -1.25 0.2885
0.9 -1.25 0.27725
0.95 -1.25 0.2665
1 -1.25 0.25625
1.05 -1.25 0.2465
1.1 -1.25 0.23725
1.15 -1.25 0.2285
1.2 -1.25 0.22025
1.25 -1.25 0.2125
1.3 -1.25 0.20525
1.35 -1.25 0.1985
1.4 -1.25 0.19225
1.45 -1.25 0.1865
1.5 -1.25 0.18125
1.55 -1.25 0.1765
1.6 -1.25 0.17225
1.65 -1.25 0.1685
1.7 -1.25 0.16525
1.75 -1.25 0.1625
1.8 -1.25 0.16025
1.85 -1.25 0.1585
1.9 -1.25 0.15725
1.95 -1.25 0.1565
2 -1.25 0.15625
2.05 -1.25 0.1565
2.1 -1.25 0.15725
2.15 -1.25 0.1585
2.2 -1.25 0.16025
2.25 -1.25 0.1625
2.3 -1.25 0.16525
2.35 -1.25 0.1685
2.4 -1.25 0.17225
2.45 -1.25 0.1765
2.5 -1.25 0.18125
2.55 -1.25 0.1865
2.6 -1.25 0.19225
2.65 -1.25 0.1985
2.7 -1.25 0.20525
2.75 -1.25 0.2125
2.8 -1.25 0.22025
2.85 -1.25 0.2285
2.9 -1.25 0.23725
2.95 -1.25 0.2465
3 -1.25 0.25625
3.05 -1.25 0.2665
3.1 -1.25 0.27725
3.15 -1.25 0.2885
3.2 -1.25 0.30025
3.25 -1.25 0.3125
3.3 -1.25 0.32525
3.35 -1.25 0.3385
3.4 -1.25 0.35225
3.45 -1.25 0.3665
3.5 -1.25 0.38125
3.55 -1.25 0.3965
3.6 -1.25 0.41225
3.65 -1.25 0.4285
3.7 -1.25 0.44525
3.75 -1.25 0.4625
3.8 -1.25 0.48025
3.85 -1.25 0.4985
3.9 -1.25 0.51725
3.95 -1.25 0.5365
4 -1.25 0.55625
0 -1.2 0.544
0.05 -1.2 0.52425
0.1 -1.2 0.505
0.15 -1.2 0.48625
0.2 -1.2 0.468
0.25 -1.2 0.45025
0.3 -1.2 0.433
0.35 -1.2 0.41625
0.4 -1.2 0.4
0.45 -1.2 0.38425
0.5 -1.2 0.369
0.55 -1.2 0.35425
0.6 -1.2 0.34
0.65 -1.2 0.32625
0.7 -1.2 0.313
0.75 -1.2 0.30025
0.8 -1.2 0.288
0.85 -1.2 0.27625
0.9 -1.2 0.265
0.95 -1.2 0.25425
1 -1.2 0.244
1.05 -1.2 0.23425
1.1 -1.2 0.225
1.15 -1.2 0.21625
1.2 -1.2 0.208
1.25 -1.2 0.20025
1.3 -1.2 0.193
1.35 -1.2 0.18625
1.4 -1.2 0.18
1.45 -1.2 0.17425
1.5 -1.2 0.169
1.55 -1.2 0.16425
1.6 -1.2 0.16
1.65 -1.2 0.15625
1.7 -1.2 0.153
1.75 -1.2 0.15025
1.8 -1.2 0.148
1.85 -1.2 0.14625
1.9 -1.2 0.145
1.95 -1.2 0.14425
2 -1.2 0.144
2.05 -1.2 0.14425
2.1 -1.2 0.145
2.15 -1.2 0.14625
2.2 -1.2 0.148
2.25 -1.2 0.15025
2.3 -1.2 0.153
2.35 -1.2 0.15625
2.4 -1.2 0.16
2.45 -1.2 0.16425
2.5 -1.2 0.169
2.55 -1.2 0.17425
2.6 -1.2 0.18
2.65 -1.2 0.18625
2.7 -1.2 0.193
2.75 -1.2 0.20025
2.8 -1.2 0.208
2.85 -1.2 0.21625
2.9 -1.2 0.225
2.95 -1.2 0.23425
3 -1.2 0.244
3.05 -1.2 0.25425
3.1 -1.2 0.265
3.15 -1.2 0.27625
3.2 -1.2 0.288
3.25 -1.2 0.30025
3.3 -1.2 0.313
3.35 -1.2 0.32625
3.4 -1.2 0.34
3.45 -1.2 0.35425
3.5 -1.2 0.369
3.55 -1.2 0.38425
3.6 -1.2 0.4
3.65 -1.2 0.41625
3.7 -1.2 0.433
3.75 -1.2 0.45025
3.8 -1.2 0.468
3.85 -1.2 0.48625
3.9 -1.2 0.505
3.95 -1.2 0.52425
4 -1.2 0.544
0 -1.15 0.53225
0.05 -1.15 0.5125
0.1 -1.15 0.49325
0.15 -1.15 0.4745
0.2 -1.15 0.45625
0.25 -1.15 0.4385
0.3 -1.15 0.42125
0.35 -1.15 0.4045
0.4 -1.15 0.38825
0.45 -1.15 0.3725
0.5 -1.15 0.35725
0.55 -1.15 0.3425
0.6 -1.15 0.32825
0.65 -1.15 0.3145
0.7 -1.15 0.30125
0.75 -1.15 0.2885
0.8 -1.15 0.27625
0.85 -1.15 0.2645
0.9 -1.15 0.25325
0.95 -1.15 0.2425
1 -1.15 0.23225
1.05 -1.15 0.2225
1.1 -1.15 0.21325
1.15 -1.15 0.2045
1.2 -1.15 0.19625
1.25 -1.15 0.1885
1.3 -1.15 0.18125
1.35 -1.15 0.1745
1.4 -1.15 0.16825
1.45 -1.15 0.1625
1.5 -1.15 0.15725
1.55 -1.15 0.1525
1.6 -1.15 0.14825
1.65 -1.15 0.1445
1.7 -1.15 0.14125
1.75 -1.15 0.1385
1.8 -1.15 0.13625
1.85 -1.15 0.1345
1.9 -1.15 0.13325
1.95 -1.15 0.1325
2 -1.15 0.13225
2.05 -1.15 0.1325
2.1 -1.15 0.13325
2.15 -1.15 0.1345
2.2 -1.15 0.13625
2.25 -1.15 0.1385
2.3 -1.15 0.14125
2.35 -1.15 0.1445
2.4 -1.15 0.14825
2.45 -1.15 0.1525
2.5 -1.15 0.15725
2.55 -1.15 0.1625
2.6 -1.15 0.16825
2.65 -1.15 0.1745
2.7 -1.15 0.18125
2.75 -1.15 0.1885
2.8 -1.15 0.19625
2.85 -1.15 0.2045
2.9 -1.15 0.21325
2.95 -1.15 0.2225
3 -1.15 0.23225
3.05 -1.15 0.2425
3.1 -1.15 0.25325
3.15 -1.15 0.2645
3.2 -1.15 0.27625
3.25 -1.15 0.2885
3.3 -1.15 0.30125
3.35 -1.15 0.3145
3.4 -1.15 0.32825
3.45 -1.15 0.3425
3.5 -1.15 0.35725
3.55 -1.15 0.3725
3.6 -1.15 0.38825
3.65 -1.15 0.4045
3.7 -1.15 0.42125
3.75 -1.15 0.4385
3.8 -1.15 0.45625
3.85 -1.15 0.4745
3.9 -1.15 0.49325
3.95 -1.15 0.5125
4 -1.15 0.53225
0 -1.1 0.521
0.05 -1.1 0.50125
0.1 -1.1 0.482
0.15 -1.1 0.46325
0.2 -1.1 0.445
0.25 -1.1 0.42725
0.3 -1.1 0.41
0.35 -1.1 0.39325
0.4 -1.1 0.377
0.45 -1.1 0.36125
0.5 -1.1 0.346
0.55 -1.1 0.33125
0.6 -1.1 0.317
0.65 -1.1 0.30325
0.7 -1.1 0.29
0.75 -1.1 0.27725
0.8 -1.1 0.265
0.85 -1.1 0.25325
0.9 -1.1 0.242
0.95 -1.1 0.23125
1 -1.1 0.221
1.05 -1.1 0.21125
1.1 -1.1 0.202
1.15 -1.1 0.19325
1.2 -1.1 0.185
1.25 -1.1 0.17725
1.3 -1.1 0.17
1.35 -1.1 0.16325
1.4 -1.1 0.157
1.45 -1.1 0.15125
1.5 -1.1 0.146
1.55 -1.1 0.14125
1.6 -1.1 0.137
1.65 -1.1 0.13325
1.7 -1.1 0.13
1.75 -1.1 0.12725
1.8 -1.1 0.125
1.85 -1.1 0.12325
1.9 -1.1 0.122
1.95 -1.1 0.12125
2 -1.1 0.121
2.05 -1.1 0.12125
2.1 -1.1 0.122
2.15 -1.1 0.12325
2.2 -1.1 0.125
2.25 -1.1 0.12725
2.3 -1.1 0.13
2.35 -1.1 0.13325
2.4 -1.1 0.137
2.45 -1.1 0.14125
2.5 -1.1 0.146
2.55 -1.1 0.15125
2.6 -1.1 0.157
2.65 -1.1 0.16325
2.7 -1.1 0.17
2.75 -1.1 0.17725
2.8 -1.1 0.185
2.85 -1.1 0.19325
2.9 -1.1 0.202
2.95 -1.1 0.21125
3 -1.1 0.221
3.05 -1.1 0.23125
3.1 -1.1 0.242
3.15 -1.1 0.25325
3.2 -1.1 0.265
3.25 -1.1 0.27725
3.3 -1.1 0.29
3.35 -1.1 0.30325
3.4 -1.1 0.317
3.45 -1.1 0.33125
3.5 -1.1 0.346
3.55 -1.1 0.36125
3.6 -1.1 0.377
3.65 -1.1 0.39325
3.7 -1.1 0.41
3.75 -1.1 0.42725
3.8 -1.1 0.445
3.85 -1.1 0.46325
3.9 -1.1 0.482
3.95 -1.1 0.50125
4 -1.1 0.521
0 -1.05 0.51025
0.05 -1.05 0.4905
0.1 -1.05 0.47125
0.15 -1.05 0.4525
0.2 -1.05 0.43425
0.25 -1.05 0.4165
0.3 -1.05 0.39925
0.35 -1.05 0.3825
0.4 -1.05 0.36625
0.45 -1.05 0.3505
0.5 -1.05 0.33525
0.55 -1.05 0.3205
0.6 -1.05 0.30625
0.65 -1.05 0.2925
0.7 -1.05 0.27925
0.75 -1.05 0.2665
0.8 -1.05 0.25425
0.85 -1.05 0.2425
0.9 -1.05 0.23125
0.95 -1.05 0.2205
1 -1.05 0.21025
1.05 -1.05 0.2005
1.1 -1.05 0.19125
1.15 -1.05 0.1825
1.2 -1.05 0.17425
1.25 -1.05 0.1665
1.3 -1.05 0.15925
1.35 -1.05 0.1525
1.4 -1.05 0.14625
1.45 -1.05 0.1405
1.5 -1.05 0.13525
1.55 -1.05 0.1305
1.6 -1.05 0.12625
1.65 -1.05 0.1225
1.7 -1.05 0.11925
1.75 -1.05 0.1165
1.8 -1.05 0.11425
1.85 -1.05 0.1125
1.9 -1.05 0.11125
1.95 -1.05 0.1105
2 -1.05 0.11025
2.05 -1.05 0.1105
2.1 -1.05 0.11125
2.15 -1.05 0.1125
2.2 -1.05 0.11425
2.25 -1.05 0.1165
2.3 -1.05 0.11925
2.35 -1.05 0.1225
2.4 -1.05 0.12625
2.45 -1.05 0.1305
2.5 -1.05 0.13525
2.55 -1.05 0.1405
2.6 -1.05 0.14625
2.65 -1.05 0.1525
2.7 -1.05 0.15925
2.75 -1.05 0.1665
2.8 -1.05 0.17425
2.85 -1.05 0.1825
2.9 -1.05 0.19125
2.95 -1.05 0.2005
3 -1.05 0.21025
3.05 -1.05 0.2205
3.1 -1.05 0.23125
3.15 -1.05 0.2425
3.2 -1.05 0.25425
3.25 -1.05 0.2665
3.3 -1.05 0.27925
3.35 -1.05 0.2925
3.4 -1.05 0.30625
3.45 -1.05 0.3205
3.5 -1.05 0.33525
3.55 -1.05 0.3505
3.6 -1.05 0.36625
3.65 -1.05 0.3825
3.7 -1.05 0.39925
3.75 -1.05 0.4165
3.8 -1.05 0.43425
3.85 -1.05 0.4525
3.9 -1.05 0.47125
3.95 -1.05 0.4905
4 -1.05 0.51025
0 -1 0.5
0.05 -1 0.48025
0.1 -1 0.461
0.15 -1 0.44225
0.2 -1 0.424
0.25 -1 0.40625
0.3 -1 0.389
0.35 -1 0.37225
0.4 -1 0.356
0.45 -1 0.34025
0.5 -1 0.325
0.55 -1 0.31025
0.6 -1 0.296
0.65 -1 0.28225
0.7 -1 0.269
0.75 -1 0.25625
0.8 -1 0.244
0.85 -1 0.23225
0.9 -1 0.221
0.95 -1 0.21025
1 -1 0.2
1.05 -1 0.19025
1.1 -1 0.181
1.15 -1 0.17225
1.2 -1 0.164
1.25 -1 0.15625
1.3 -1 0.149
1.35 -1 0.14225
1.4 -1 0.136
1.45 -1 0.13025
1.5 -1 0.125
1.55 -1 0.12025
1.6 -1 0.116
1.65 -1 0.11225
1.7 -1 0.109
1.75 -1 0.10625
1.8 -1 0.104
1.85 -1 0.10225
1.9 -1 0.101
1.95 -1 0.10025
2 -1 0.1
2.05 -1 0.10025
2.1 -1 0.101
2.15 -1 0.10225
2.2 -1 0.104
2.25 -1 0.10625
2.3 -1 0.109
2.35 -1 0.11225
2.4 -1 0.116
2.45 -1 0.12025
2.5 -1 0.125
2.55 -1 0.13025
2.6 -1 0.136
2.65 -1 0.14225
2.7 -1 0.149
2.75 -1 0.15625
2.8 -1 0.164
2.85 -1 0.17225
2.9 -1 0.181
2.95 -1 0.19025
3 -1 0.2
3.05 -1 0.21025
3.1 -1 0.221
3.15 -1 0.23225
3.2 -1 0.244
3.25 -1 0.25625
3.3 -1 0.269
3.35 -1 0.28225
3.4 -1 0.296
3.45 -1 0.31025
3.5 -1 0.325
3.55 -1 0.34025
3.6 -1 0.356
3.65 -1 0.37225
3.7 -1 0.389
3.75 -1 0.40625
3.8 -1 0.424
3.85 -1 0.44225
3.9 -1 0.461
3.95 -1 0.48025
4 -1 0.5
0 -0.95 0.49025
0.05 -0.95 0.4705
0.1 -0.95 0.45125
0.15 -0.95 0.4325
0.2 -0.95 0.41425
0.25 -0.95 0.3965
0.3 -0.95 0.37925
0.35 -0.95 0.3625
0.4 -0.95 0.34625
0.45 -0.95 0.3305
0.5 -0.95 0.31525
0.55 -0.95 0.3005
0.6 -0.95 0.28625
0.65 -0.95 0.2725
0.7 -0.95 0.25925
0.75 -0.95 0.2465
0.8 -0.95 0.23425
0.85 -0.95 0.2225
0.9 -0.95 0.21125
0.95 -0.95 0.2005
1 -0.95 0.19025
1.05 -0.95 0.1805
1.1 -0.95 0.17125
1.15 -0.95 0.1625
1.2 -0.95 0.15425
1.25 -0.95 0.1465
1.3 -0.95 0.13925
1.35 -0.95 0.1325
1.4 -0.95 0.12625
1.45 -0.95 0.1205
1.5 -0.95 0.11525
1.55 -0.95 0.1105
1.6 -0.95 0.10625
1.65 -0.95 0.1025
1.7 -0.95 0.09925
1.75 -0.95 0.0965
1.8 -0.95 0.09425
1.85 -0.95 0.0925
1.9 -0.95 0.09125
1.95 -0.95 0.0905
2 -0.95 0.09025
2.05 -0.95 0.0905
2.1 -0.95 0.09125
2.15 -0.95 0.0925
2.2 -0.95 0.09425
2.25 -0.95 0.0965
2.3 -0.95 0.09925
2.35 -0.95 0.1025
2.4 -0.95 0.10625
2.45 -0.95 0.1105
2.5 -0.95 0.11525
2.55 -0.95 0.1205
2.6 -0.95 0.12625
2.65 -0.95 0.1325
2.7 -0.95 0.13925
2.75 -0.95 0.1465
2.8 -0.95 0.15425
2.85 -0.95 0.1625
2.9 -0.95 0.17125
2.95 -0.95 0.1805
3 -0.95 0.19025
3.05 -0.95 0.2005
3.1 -0.95 0.21125
3.15 -0.95 0.2225
3.2 -0.95 0.23425
3.25 -0.95 0.2465
3.3 -0.95 0.25925
3.35 -0.95 0.2725
3.4 -0.95 0.28625
3.45 -0.95 0.3005
3.5 -0.95 0.31525
3.55 -0.95 0.3305
3.6 -0.95 0.34625
3.65 -0.95 0.3625
3.7 -0.95 0.37925
3.75 -0.95 0.3965
3.8 -0.95 0.41425
3.85 -0.95 0.4325
3.9 -0.95 0.45125
3.95 -0.95 0.4705
4 -0.95 0.49025
0 -0.9 0.481
0.05 -0.9 0.46125
0.1 -0.9 0.442
0.15 -0.9 0.42325
0.2 -0.9 0.405
0.25 -0.9 0.38725
0.3 -0.9 0.37
0.35 -0.9 0.35325
0.4 -0.9 0.337
0.45 -0.9 0.32125
0.5 -0.9 0.306
0.55 -0.9 0.29125
0.6 -0.9 0.277
0.65 -0.9 0.26325
0.7 -0.9 0.25
0.75 -0.9 0.23725
0.8 -0.9 0.225
0.85 -0.9 0.21325
0.9 -0.9 0.202
0.95 -0.9 0.19125
1 -0.9 0.181
1.05 -0.9 0.17125
1.1 -0.9 0.162
1.15 -0.9 0.15325
1.2 -0.9 0.145
1.25 -0.9 0.13725
1.3 -0.9 0.13
1.35 -0.9 0.12325
1.4 -0.9 0.117
1.45 -0.9 0.11125
1.5 -0.9 0.106
1.55 -0.9 0.10125
1.6 -0.9 0.097
1.65 -0.9 0.09325
1.7 -0.9 0.09
1.75 -0.9 0.08725
1.8 -0.9 0.085
1.85 -0.9 0.08325
1.9 -0.9 0.082
1.95 -0.9 0.08125
2 -0.9 0.081
2.05 -0.9 0.08125
2.1 -0.9 0.082
2.15 -0.9 0.08325
2.2 -0.9 0.085
2.25 -0.9 0.08725
2.3 -0.9 0.09
2.35 -0.9 0.09325
2.4 -0.9 0.097
2.45 -0.9 0.10125
2.5 -0.9 0.106
2.55 -0.9 0.11125
2.6 -0.9 0.117
2.65 -0.9 0.12325
2.7 -0.9 0.13
2.75 -0.9 0.13725
2.8 -0.9 0.145
2.85 -0.9 0.15325
2.9 -0.9 0.162
2.95 -0.9 0.17125
3 -0.9 0.181
3.05 -0.9 0.19125
3.1 -0.9 0.202
3.15 -0.9 0.21325
3.2 -0.9 0.225
3.25 -0.9 0.23725
3.3 -0.9 0.25
3.35 -0.9 0.26325
3.4 -0.9 0.277
3.45 -0.9 0.29125
3.5 -0.9 0.306
3.55 -0.9 0.32125
3.6 -0.9 0.337
3.65 -0.9 0.35325
3.7 -0.9 0.37
3.75 -0.9 0.38725
3.8 -0.9 0.405
3.85 -0.9 0.42325
3.9 -0.9 0.442
3.95 -0.9 0.46125
4 -0.9 0.481
0 -0.85 0.47225
0.05 -0.85 0.4525
0.1 -0.85 0.43325
0.15 -0.85 0.4145
0.2 -0.85 0.39625
0.25 -0.85 0.3785
0.3 -0.85 0.36125
0.35 -0.85 0.3445
0.4 -0.85 0.32825
0.45 -0.85 0.3125
0.5 -0.85 0.29725
0.55 -0.85 0.2825
0.6 -0.85 0.26825
0.65 -0.85 0.2545
0.7 -0.85 0.24125
0.75 -0.85 0.2285
0.8 -0.85 0.21625
0.85 -0.85 0.2045
0.9 -0.85 0.19325
0.95 -0.85 0.1825
1 -0.85 0.17225
1.05 -0.85 0.1625
1.1 -0.85 0.15325
1.15 -0.85 0.1445
1.2 -0.85 0.13625
1.25 -0.85 0.1285
1.3 -0.85 0.12125
1.35 -0.85 0.1145
1.4 -0.85 0.10825
1.45 -0.85 0.1025
1.5 -0.85 0.09725
1.55 -0.85 0.0925
1.6 -0.85 0.08825
1.65 -0.85 0.0845
1.7 -0.85 0.08125
1.75 -0.85 0.0785
1.8 -0.85 0.07625
1.85 -0.85 0.0745
1.9 -0.85 0.07325
1.95 -0.85 0.0725
2 -0.85 0.07225
2.05 -0.85 0.0725
2.1 -0.85 0.07325
2.15 -0.85 0.0745
2.2 -0.85 0.07625
2.25 -0.85 0.0785
2.3 -0.85 0.08125
2.35 -0.85 0.0845
2.4 -0.85 0.08825
2.45 -0.85 0.0925
2.5 -0.85 0.09725
2.55 -0.85 0.1025
2.6 -0.85 0.10825
2.65 -0.85 0.1145
2.7 -0.85 0.12125
2.75 -0.85 0.1285
2.8 -0.85 0.13625
2.85 -0.85 0.1445
2.9 -0.85 0.15325
2.95 -0.85 0.1625
3 -0.85 0.17225
3.05 -0.85 0.1825
3.1 -0.85 0.19325
3.15 -0.85 0.2045
3.2 -0.85 0.21625
3.25 -0.85 0.2285
3.3 -0.85 0.24125
3.35 -0.85 0.2545
3.4 -0.85 0.26825
3.45 -0.85 0.2825
3.5 -0.85 0.29725
3.55 -0.85 0.3125
3.6 -0.85 0.32825
3.65 -0.85 0.3445
3.7 -0.85 0.36125
3.75 -0.85 0.3785
3.8 -0.85 0.39625
3.85 -0.85 0.4145
3.9 -0.85 0.43325
3.95 -0.85 0.4525
4 -0.85 0.47225
0 -0.8 0.464
0.05 -0.8 0.44425
0.1 -0.8 0.425
0.15 -0.8 0.40625
0.2 -0.8 0.388
0.25 -0.8 0.37025
0.3 -0.8 0.353
0.35 -0.8 0.33625
0.4 -0.8 0.32
0.45 -0.8 0.30425
0.5 -0.8 0.289
0.55 -0.8 0.27425
0.6 -0.8 0.26
0.65 -0.8 0.24625
0.7 -0.8 0.233
0.75 -0.8 0.22025
0.8 -0.8 0.208
0.85 -0.8 0.19625
0.9 -0.8 0.185
0.95 -0.8 0.17425
1 -0.8 0.164
1.05 -0.8 0.15425
1.1 -0.8 0.145
1.15 -0.8 0.13625
1.2 -0.8 0.128
1.25 -0.8 0.12025
1.3 -0.8 0.113
1.35 -0.8 0.10625
1.4 -0.8 0.1
1.45 -0.8 0.09425
1.5 -0.8 0.089
1.55 -0.8 0.08425
1.6 -0.8 0.08
1.65 -0.8 0.07625
1.7 -0.8 0.073
1.75 -0.8 0.07025
1.8 -0.8 0.068
1.85 -0.8 0.06625
1.9 -0.8 0.065
1.95 -0.8 0.06425
2 -0.8 0.064
2.05 -0.8 0.06425
2.1 -0.8 0.065
2.15 -0.8 0.06625
2.2 -0.8 0.068
2.25 -0.8 0.07025
2.3 -0.8 0.073
2.35 -0.8 0.07625
2.4 -0.8 0.08
2.45 -0.8 0.08425
2.5 -0.8 0.089
2.55 -0.8 0.09425
2.6 -0.8 0.1
2.65 -0.8 0.10625
2.7 -0.8 0.113
2.75 -0.8 0.12025
2.8 -0.8 0.128
2.85 -0.8 0.13625
2.9 -0.8 0.145
2.95 -0.8 0.15425
3 -0.8 0.164
3.05 -0.8 0.17425
3.1 -0.8 0.185
3.15 -0.8 0.19625
3.2 -0.8 0.208
3.25 -0.8 0.22025
3.3 -0.8 0.233
3.35 -0.8 0.24625
3.4 -0.8 0.26
3.45 -0.8 0.27425
3.5 -0.8 0.289
3.55 -0.8 0.30425
3.6 -0.8 0.32
3.65 -0.8 0.33625
3.7 -0.8 0.353
3.75 -0.8 0.37025
3.8 -0.8 0.388
3.85 -0.8 0.40625
3.9 -0.8 0.425
3.95 -0.8 0.44425
4 -0.8 0.464
0 -0.75 0.45625
0.05 -0.75 0.4365
0.1 -0.75 0.41725
0.15 -0.75 0.3985
0.2 -0.75 0.38025
0.25 -0.75 0.3625
0.3 -0.75 0.34525
0.35 -0.75 0.3285
0.4 -0.75 0.31225
0.45 -0.75 0.2965
0.5 -0.75 0.28125
0.55 -0.75 0.2665
0.6 -0.75 0.25225
0.65 -0.75 0.2385
0.7 -0.75 0.22525
0.75 -0.75 0.2125
0.8 -0.75 0.20025
0.85 -0.75 0.1885
0.9 -0.75 0.17725
0.95 -0.75 0.1665
1 -0.75 0.15625
1.05 -0.75 0.1465
1.1 -0.75 0.13725
1.15 -0.75 0.1285
1.2 -0.75 0.12025
1.25 -0.75 0.1125
1.3 -0.75 0.10525
1.35 -0.75 0.0985
1.4 -0.75 0.09225
1.45 -0.75 0.0865
1.5 -0.75 0.08125
1.55 -0.75 0.0765
1.6 -0.75 0.07225
1.65 -0.75 0.0685
1.7 -0.75 0.06525
1.75 -0.75 0.0625
1.8 -0.75 0.06025
1.85 -0.75 0.0585
1.9 -0.75 0.05725
1.95 -0.75 0.0565
2 -0.75 0.05625
2.05 -0.75 0.0565
2.1 -0.75 0.05725
2.15 -0.75 0.0585
2.2 -0.75 0.06025
2.25 -0.75 0.0625
2.3 -0.75 0.06525
2.35 -0.75 0.0685
2.4 -0.75 0.07225
2.45 -0.75 0.0765
2.5 -0.75 0.08125
2.55 -0.75 0.0865
2.6 -0.75 0.09225
2.65 -0.75 0.0985
2.7 -0.75 0.10525
2.75 -0.75 0.1125
2.8 -0.75 0.12025
2.85 -0.75 0.1285
2.9 -0.75 0.13725
2.95 -0.75 0.1465
3 -0.75 0.15625
3.05 -0.75 0.1665
3.1 -0.75 0.17725
3.15 -0.75 0.1885
3.2 -0.75 0.20025
3.25 -0.75 0.2125
3.3 -0.75 0.22525
3.35 -0.75 0.2385
3.4 -0.75 0.25225
3.45 -0.75 0.2665
3.5 -0.75 0.28125
3.55 -0.75 0.2965
3.6 -0.75 0.31225
3.65 -0.75 0.3285
3.7 -0.75 0.34525
3.75 -0.75 0.3625
3.8 -0.75 0.38025
3.85 -0.75 0.3985
3.9 -0.75 0.41725
3.95 -0.75 0.4365
4 -0.75 0.45625
0 -0.7 0.449
0.05 -0.7 0.42925
0.1 -0.7 0.41
0.15 -0.7 0.39125
0.2 -0.7 0.373
0.25 -0.7 0.35525
0.3 -0.7 0.338
0.35 -0.7 0.32125
0.4 -0.7 0.305
0.45 -0.7 0.28925
0.5 -0.7 0.274
0.55 -0.7 0.25925
0.6 -0.7 0.245
0.65 -0.7 0.23125
0.7 -0.7 0.218
0.75 -0.7 0.20525
0.8 -0.7 0.193
0.85 -0.7 0.18125
0.9 -0.7 0.17
0.95 -0.7 0.15925
1 -0.7 0.149
1.05 -0.7 0.13925
1.1 -0.7 0.13
1.15 -0.7 0.12125
1.2 -0.7 0.113
1.25 -0.7 0.10525
1.3 -0.7 0.098
1.35 -0.7 0.09125
1.4 -0.7 0.085
1.45 -0.7 0.07925
1.5 -0.7 0.074
1.55 -0.7 0.06925
1.6 -0.7 0.065
1.65 -0.7 0.06125
1.7 -0.7 0.058
1.75 -0.7 0.05525
1.8 -0.7 0.053
1.85 -0.7 0.05125
1.9 -0.7 0.05
1.95 -0.7 0.04925
2 -0.7 0.049
2.05 -0.7 0.04925
2.1 -0.7 0.05
2.15 -0.7 0.05125
2.2 -0.7 0.053
2.25 -0.7 0.05525
2.3 -0.7 0.058
2.35 -0.7 0.06125
2.4 -0.7 0.065
2.45 -0.7 0.06925
2.5 -0.7 0.074
2.55 -0.7 0.07925
2.6 -0.7 0.085
2.65 -0.7 0.09125
2.7 -0.7 0.098
2.75 -0.7 0.10525
2.8 -0.7 0.113
2.85 -0.7 0.12125
2.9 -0.7 0.13
2.95 -0.7 0.13925
3 -0.7 0.149
3.05 -0.7 0.15925
3.1 -0.7 0.17
3.15 -0.7 0.18125
3.2 -0.7 0.193
3.25 -0.7 0.20525
3.3 -0.7 0.218
3.35 -0.7 0.23125
3.4 -0.7 0.245
3.45 -0.7 0.25925
3.5 -0.7 0.274
3.55 -0.7 0.28925
3.6 -0.7 0.305
3.65 -0.7 0.32125
3.7 -0.7 0.338
3.75 -0.7 0.35525
3.8 -0.7 0.373
3.85 -0.7 0.39125
3.9 -0.7 0.41
3.95 -0.7 0.42925
4 -0.7 0.449
0 -0.65 0.44225
0.05 -0.65 0.4225
0.1 -0.65 0.40325
0.15 -0.65 0.3845
0.2 -0.65 0.36625
0.25 -0.65 0.3485
0.3 -0.65 0.33125
0.35 -0.65 0.3145
0.4 -0.65 0.29825
0.45 -0.65 0.2825
0.5 -0.65 0.26725
0.55 -0.65 0.2525
0.6 -0.65 0.23825
0.65 -0.65 0.2245
0.7 -0.65 0.21125
0.75 -0.65 0.1985
0.8 -0.65 0.18625
0.85 -0.65 0.1745
0.9 -0.65 0.16325
0.95 -0.65 0.1525
1 -0.65 0.14225
1.05 -0.65 0.1325
1.1 -0.65 0.12325
1.15 -0.65 0.1145
1.2 -0.65 0.10625
1.25 -0.65 0.0985
1.3 -0.65 0.09125
1.35 -0.65 0.0845
1.4 -0.65 0.07825
1.45 -0.65 0.0725
1.5 -0.65 0.06725
1.55 -0.65 0.0625
1.6 -0.65 0.05825
1.65 -0.65 0.0545
1.7 -0.65 0.05125
1.75 -0.65 0.0485
1.8 -0.65 0.04625
1.85 -0.65 0.0445
1.9 -0.65 0.04325
1.95 -0.65 0.0425
2 -0.65 0.04225
2.05 -0.65 0.0425
2.1 -0.65 0.04325
2.15 -0.65 0.0445
2.2 -0.65 0.04625
2.25 -0.65 0.0485
2.3 -0.65 0.05125
2.35 -0.65 0.0545
2.4 -0.65 0.05825
2.45 -0.65 0.0625
2.5 -0.65 0.06725
2.55 -0.65 0.0725
2.6 -0.65 0.07825
2.65 -0.65 0.0845
2.7 -0.65 0.09125
2.75 -0.65 0.0985
2.8 -0.65 0.10625
2.85 -0.65 0.1145
2.9 -0.65 0.12325
2.95 -0.65 0.1325
3 -0.65 0.14225
3.05 -0.65 0.1525
3.1 -0.65 0.16325
3.15 -0.65 0.1745
3.2 -0.65 0.18625
3.25 -0.65 0.1985
3.3 -0.65 0.21125
3.35 -0.65 0.2245
3.4 -0.65 0.23825
3.45 -0.65 0.2525
3.5 -0.65 0.26725
3.55 -0.65 0.2825
3.6 -0.65 0.29825
3.65 -0.65 0.3145
3.7 -0.65 0.33125
3.75 -0.65 0.3485
3.8 -0.65 0.36625
3.85 -0.65 0.3845
3.9 -0.65 0.40325
3.95 -0.65 0.4225
4 -0.65 0.44225
0 -0.6 0.436
0.05 -0.6 0.41625
0.1 -0.6 0.397
0.15 -0.6 0.37825
0.2 -0.6 0.36
0.25 -0.6 0.34225
0.3 -0.6 0.325
0.35 -0.6 0.30825
0.4 -0.6 0.292
0.45 -0.6 0.27625
0.5 -0.6 0.261
0.55 -0.6 0.24625
0.6 -0.6 0.232
0.65 -0.6 0.21825
0.7 -0.6 0.205
0.75 -0.6 0.19225
0.8 -0.6 0.18
0.85 -0.6 0.16825
0.9 -0.6 0.157
0.95 -0.6 0.14625
1 -0.6 0.136
1.05 -0.6 0.12625
1.1 -0.6 0.117
1.15 -0.6 0.10825
1.2 -0.6 0.1
1.25 -0.6 0.09225
1.3 -0.6 0.085
1.35 -0.6 0.07825
1.4 -0.6 0.072
1.45 -0.6 0.06625
1.5 -0.6 0.061
1.55 -0.6 0.05625
1.6 -0.6 0.052
1.65 -0.6 0.04825
1.7 -0.6 0.045
1.75 -0.6 0.04225
1.8 -0.6 0.04
1.85 -0.6 0.03825
1.9 -0.6 0.037
1.95 -0.6 0.03625
2 -0.6 0.036
2.05 -0.6 0.03625
2.1 -0.6 0.037
2.15 -0.6 0.03825
2.2 -0.6 0.04
2.25 -0.6 0.04225
2.3 -0.6 0.045
2.35 -0.6 0.04825
2.4 -0.6 0.052
2.45 -0.6 0.05625
2.5 -0.6 0.061
2.55 -0.6 0.06625
2.6 -0.6 0.072
2.65 -0.6 0.07825
2.7 -0.6 0.085
2.75 -0.6 0.09225
2.8 -0.6 0.1
2.85 -0.6 0.10825
2.9 -0.6 0.117
2.95 -0.6 0.12625
3 -0.6 0.136
3.05 -0.6 0.14625
3.1 -0.6 0.157
3.15 -0.6 0.16825
3.2 -0.6 0.18
3.25 -0.6 0.19225
3.3 -0.6 0.205
3.35 -0.6 0.21825
3.4 -0.6 0.232
3.45 -0.6 0.24625
3.5 -0.6 0.261
3.55 -0.6 0.27625
3.6 -0.6 0.292
3.65 -0.6 0.30825
3.7 -0.6 0.325
3.75 -0.6 0.34225
3.8 -0.6 0.36
3.85 -0.6 0.37825
3.9 -0.6 0.397
3.95 -0.6 0.41625
4 -0.6 0.436
0 -0.55 0.43025
0.05 -0.55 0.4105
0.1 -0.55 0.39125
0.15 -0.55 0.3725
0.2 -0.55 0.35425
0.25 -0.55 0.3365
0.3 -0.55 0.31925
0.35 -0.55 0.3025
0.4 -0.55 0.28625
0.45 -0.55 0.2705
0.5 -0.55 0.25525
0.55 -0.55 0.2405
0.6 -0.55 0.22625
0.65 -0.55 0.2125
0.7 -0.55 0.19925
0.75 -0.55 0.1865
0.8 -0.55 0.17425
0.85 -0.55 0.1625
0.9 -0.55 0.15125
0.95 -0.55 0.1405
1 -0.55 0.13025
1.05 -0.55 0.1205
1.1 -0.55 0.11125
1.15 -0.55 0.1025
1.2 -0.55 0.09425
1.25 -0.55 0.0865
1.3 -0.55 0.07925
1.35 -0.55 0.0725
1.4 -0.55 0.06625
1.45 -0.55 0.0605
1.5 -0.55 0.05525
1.55 -0.55 0.0505
1.6 -0.55 0.04625
1.65 -0.55 0.0425
1.7 -0.55 0.03925
1.75 -0.55 0.0365
1.8 -0.55 0.03425
1.85 -0.55 0.0325
1.9 -0.55 0.03125
1.95 -0.55 0.0305
2 -0.55 0.03025
2.05 -0.55 0.0305
2.1 -0.55 0.03125
2.15 -0.55 0.0325
2.2 -0.55 0.03425
2.25 -0.55 0.0365
2.3 -0.55 0.03925
2.35 -0.55 0.0425
2.4 -0.55 0.04625
2.45 -0.55 0.0505
2.5 -0.55 0.05525
2.55 -0.55 0.0605
2.6 -0.55 0.06625
2.65 -0.55 0.0725
2.7 -0.55 0.07925
2.75 -0.55 0.0865
2.8 -0.55 0.09425
2.85 -0.55 0.1025
2.9 -0.55 0.11125
2.95 -0.55 0.1205
3 -0.55 0.13025
3.05 -0.55 0.1405
3.1 -0.55 0.15125
3.15 -0.55 0.1625
3.2 -0.55 0.17425
3.25 -0.55 0.1865
3.3 -0.55 0.19925
3.35 -0.55 0.2125
3.4 -0.55 0.22625
3.45 -0.55 0.2405
3.5 -0.55 0.25525
3.55 -0.55 0.2705
3.6 -0.55 0.28625
3.65 -0.55 0.3025
3.7 -0.55 0.31925
3.75 -0.55 0.3365
3.8 -0.55 0.35425
3.85 -0.55 0.3725
3.9 -0.55 0.39125
3.95 -0.55 0.4105
4 -0.55 0.43025
0 -0.5 0.425
0.05 -0.5 0.40525
0.1 -0.5 0.386
0.15 -0.5 0.36725
0.2 -0.5 0.349
0.25 -0.5 0.33125
0.3 -0.5 0.314
0.35 -0.5 0.29725
0.4 -0.5 0.281
0.45 -0.5 0.26525
0.5 -0.5 0.25
0.55 -0.5 0.23525
0.6 -0.5 0.221
0.65 -0.5 0.20725
0.7 -0.5 0.194
0.75 -0.5 0.18125
0.8 -0.5 0.169
0.85 -0.5 0.15725
0.9 -0.5 0.146
0.95 -0.5 0.13525
1 -0.5 0.125
1.05 -0.5 0.11525
1.1 -0.5 0.106
1.15 -0.5 0.09725
1.2 -0.5 0.089
1.25 -0.5 0.08125
1.3 -0.5 0.074
1.35 -0.5 0.06725
1.4 -0.5 0.061
1.45 -0.5 0.05525
1.5 -0.5 0.05
1.55 -0.5 0.04525
1.6 -0.5 0.041
1.65 -0.5 0.03725
1.7 -0.5 0.034
1.75 -0.5 0.03125
1.8 -0.5 0.029
1.85 -0.5 0.02725
1.9 -0.5 0.026
1.95 -0.5 0.02525
2 -0.5 0.025
2.05 -0.5 0.02525
2.1 -0.5 0.026
2.15 -0.5 0.02725
2.2 -0.5 0.029
2.25 -0.5 0.03125
2.3 -0.5 0.034
2.35 -0.5 0.03725
2.4 -0.5 0.041
2.45 -0.5 0.04525
2.5 -0.5 0.05
2.55 -0.5 0.05525
2.6 -0.5 0.061
2.65 -0.5 0.06725
2.7 -0.5 0.074
2.75 -0.5 0.08125
2.8 -0.5 0.089
2.85 -0.5 0.09725
2.9 -0.5 0.106
2.95 -0.5 0.11525
3 -0.5 0.125
3.05 -0.5 0.13525
3.1 -0.5 0.146
3.15 -0.5 0.15725
3.2 -0.5 0.169
3.25 -0.5 0.18125
3.3 -0.5 0.194
3.35 -0.5 0.20725
3.4 -0.5 0.221
3.45 -0.5 0.23525
3.5 -0.5 0.25
3.55 -0.5 0.26525
3.6 -0.5 0.281
3.65 -0.5 0.29725
3.7 -0.5 0.314
3.75 -0.5 0.33125
3.8 -0.5 0.349
3.85 -0.5 0.36725
3.9 -0.5 0.386
3.95 -0.5 0.40525
4 -0.5 0.425
0 -0.45 0.42025
0.05 -0.45 0.4005
0.1 -0.45 0.38125
0.15 -0.45 0.3625
0.2 -0.45 0.34425
0.25 -0.45 0.3265
0.3 -0.45 0.30925
0.35 -0.45 0.2925
0.4 -0.45 0.27625
0.45 -0.45 0.2605
0.5 -0.45 0.24525
0.55 -0.45 0.2305
0.6 -0.45 0.21625
0.65 -0.45 0.2025
0.7 -0.45 0.18925
0.75 -0.45 0.1765
0.8 -0.45 0.16425
0.85 -0.45 0.1525
0.9 -0.45 0.14125
0.95 -0.45 0.1305
1 -0.45 0.12025
1.05 -0.45 0.1105
1.1 -0.45 0.10125
1.15 -0.45 0.0925
1.2 -0.45 0.08425
1.25 -0.45 0.0765
1.3 -0.45 0.06925
1.35 -0.45 0.0625
1.4 -0.45 0.05625
1.45 -0.45 0.0505
1.5 -0.45 0.04525
1.55 -0.45 0.0405
1.6 -0.45 0.03625
1.65 -0.45 0.0325
1.7 -0.45 0.02925
1.75 -0.45 0.0265
1.8 -0.45 0.02425
1.85 -0.45 0.0225
1.9 -0.45 0.02125
1.95 -0.45 0.0205
2 -0.45 0.02025
2.05 -0.45 0.0205
2.1 -0.45 0.02125
2.15 -0.45 0.0225
2.2 -0.45 0.02425
2.25 -0.45 0.0265
2.3 -0.45 0.02925
2.35 -0.45 0.0325
2.4 -0.45 0.03625
2.45 -0.45 0.0405
2.5 -0.45 0.04525
2.55 -0.45 0.0505
2.6 -0.45 0.05625
2.65 -0.45 0.0625
2.7 -0.45 0.06925
2.75 -0.45 0.0765
2.8 -0.45 0.08425
2.85 -0.45 0.0925
2.9 -0.45 0.10125
2.95 -0.45 0.1105
3 -0.45 0.12025
3.05 -0.45 0.1305
3.1 -0.45 0.14125
3.15 -0.45 0.1525
3.2 -0.45 0.16425
3.25 -0.45 0.1765
3.3 -0.45 0.18925
3.35 -0.45 0.2025
3.4 -0.45 0.21625
3.45 -0.45 0.2305
3.5 -0.45 0.24525
3.55 -0.45 0.2605
3.6 -0.45 0.27625
3.65 -0.45 0.2925
3.7 -0.45 0.30925
3.75 -0.45 0.3265
3.8 -0.45 0.34425
3.85 -0.45 0.3625
3.9 -0.45 0.38125
3.95 -0.45 0.4005
4 -0.45 0.42025
0 -0.4 0.416
0.05 -0.4 0.39625
0.1 -0.4 0.377
0.15 -0.4 0.35825
0.2 -0.4 0.34
0.25 -0.4 0.32225
0.3 -0.4 0.305
0.35 -0.4 0.28825
0.4 -0.4 0.272
0.45 -0.4 0.25625
0.5 -0.4 0.241
0.55 -0.4 0.22625
0.6 -0.4 0.212
0.65 -0.4 0.19825
0.7 -0.4 0.185
0.75 -0.4 0.17225
0.8 -0.4 0.16
0.85 -0.4 0.14825
0.9 -0.4 0.137
0.95 -0.4 0.12625
1 -0.4 0.116
1.05 -0.4 0.10625
1.1 -0.4 0.097
1.15 -0.4 0.08825
1.2 -0.4 0.08
1.25 -0.4 0.07225
1.3 -0.4 0.065
1.35 -0.4 0.05825
1.4 -0.4 0.052
1.45 -0.4 0.04625
1.5 -0.4 0.041
1.55 -0.4 0.03625
1.6 -0.4 0.032
1.65 -0.4 0.02825
1.7 -0.4 0.025
1.75 -0.4 0.02225
1.8 -0.4 0.02
1.85 -0.4 0.01825
1.9 -0.4 0.017
1.95 -0.4 0.01625
2 -0.4 0.016
2.05 -0.4 0.01625
2.1 -0.4 0.017
2.15 -0.4 0.01825
2.2 -0.4 0.02
2.25 -0.4 0.02225
2.3 -0.4 0.025
2.35 -0.4 0.02825
2.4 -0.4 0.032
2.45 -0.4 0.03625
2.5 -0.4 0.041
2.55 -0.4 0.04625
2.6 -0.4 0.052
2.65 -0.4 0.05825
2.7 -0.4 0.065
2.75 -0.4 0.07225
2.8 -0.4 0.08
2.85 -0.4 0.08825
2.9 -0.4 0.097
2.95 -0.4 0.10625
3 -0.4 0.116
3.05 -0.4 0.12625
3.1 -0.4 0.137
3.15 -0.4 0.14825
3.2 -0.4 0.16
3.25 -0.4 0.17225
3.3 -0.4 0.185
3.35 -0.4 0.19825
3.4 -0.4 0.212
3.45 -0.4 0.22625
3.5 -0.4 0.241
3.55 -0.4 0.25625
3.6 -0.4 0.272
3.65 -0.4 0.28825
3.7 -0.4 0.305
3.75 -0.4 0.32225
3.8 -0.4 0.34
3.85 -0.4 0.35825
3.9 -0.4 0.377
3.95 -0.4 0.39625
4 -0.4 0.416
0 -0.35 0.41225
0.05 -0.35 0.3925
0.1 -0.35 0.37325
0.15 -0.35 0.3545
0.2 -0.35 0.33625
0.25 -0.35 0.3185
0.3 -0.35 0.30125
0.35 -0.35 0.2845
0.4 -0.35 0.26825
0.45 -0.35 0.2525
0.5 -0.35 0.23725
0.55 -0.35 0.2225
0.6 -0.35 0.20825
0.65 -0.35 0.1945
0.7 -0.35 0.18125
0.75 -0.35 0.1685
0.8 -0.35 0.15625
0.85 -0.35 0.1445
0.9 -0.35 0.13325
0.95 -0.35 0.1225
1 -0.35 0.11225
1.05 -0.35 0.1025
1.1 -0.35 0.09325
1.15 -0.35 0.0845
1.2 -0.35 0.07625
1.25 -0.35 0.0685
1.3 -0.35 0.06125
1.35 -0.35 0.0545
1.4 -0.35 0.04825
1.45 -0.35 0.0425
1.5 -0.35 0.03725
1.55 -0.35 0.0325
1.6 -0.35 0.02825
1.65 -0.35 0.0245
1.7 -0.35 0.02125
1.75 -0.35 0.0185
1.8 -0.35 0.01625
1.85 -0.35 0.0145
1.9 -0.35 0.01325
1.95 -0.35 0.0125
2 -0.35 0.01225
2.05 -0.35 0.0125
2.1 -0.35 0.01325
2.15 -0.35 0.0145
2.2 -0.35 0.01625
2.25 -0.35 0.0185
2.3 -0.35 0.02125
2.35 -0.35 0.0245
2.4 -0.35 0.02825
2.45 -0.35 0.0325
2.5 -0.35 0.03725
2.55 -0.35 0.0425
2.6 -0.35 0.04825
2.65 -0.35 0.0545
2.7 -0.35 0.06125
2.75 -0.35 0.0685
2.8 -0.35 0.07625
2.85 -0.35 0.0845
2.9 -0.35 0.09325
2.95 -0.35 0.1025
3 -0.35 0.11225
3.05 -0.35 0.1225
3.1 -0.35 0.13325
3.15 -0.35 0.1445
3.2 -0.35 0.15625
3.25 -0.35 0.1685
3.3 -0.35 0.18125
3.35 -0.35 0.1945
3.4 -0.35 0.20825
3.45 -0.35 0.2225
3.5 -0.35 0.23725
3.55 -0.35 0.2525
3.6 -0.35 0.26825
3.65 -0.35 0.2845
3.7 -0.35 0.30125
3.75 -0.35 0.3185
3.8 -0.35 0.33625
3.85 -0.35 0.3545
3.9 -0.35 0.37325
3.95 -0.35 0.3925
4 -0.35 0.41225
0 -0.3 0.409
0.05 -0.3 0.38925
0.1 -0.3 0.37
0.15 -0.3 0.35125
0.2 -0.3 0.333
0.25 -0.3 0.31525
0.3 -0.3 0.298
0.35 -0.3 0.28125
0.4 -0.3 0.265
0.45 -0.3 0.24925
0.5 -0.3 0.234
0.55 -0.3 0.21925
0.6 -0.3 0.205
0.65 -0.3 0.19125
0.7 -0.3 0.178
0.75 -0.3 0.16525
0.8 -0.3 0.153
0.85 -0.3 0.14125
0.9 -0.3 0.13
0.95 -0.3 0.11925
1 -0.3 0.109
1.05 -0.3 0.09925
1.1 -0.3 0.09
1.15 -0.3 0.08125
1.2 -0.3 0.073
1.25 -0.3 0.06525
1.3 -0.3 0.058
1.35 -0.3 0.05125
1.4 -0.3 0.045
1.45 -0.3 0.03925
1.5 -0.3 0.034
1.55 -0.3 0.02925
1.6 -0.3 0.025
1.65 -0.3 0.02125
1.7 -0.3 0.018
1.75 -0.3 0.01525
1.8 -0.3 0.013
1.85 -0.3 0.01125
1.9 -0.3 0.01
1.95 -0.3 0.00925
2 -0.3 0.009
2.05 -0.3 0.00925
2.1 -0.3 0.01
2.15 -0.3 0.01125
2.2 -0.3 0.013
2.25 -0.3 0.01525
2.3 -0.3 0.018
2.35 -0.3 0.02125
2.4 -0.3 0.025
2.45 -0.3 0.02925
2.5 -0.3 0.034
2.55 -0.3 0.03925
2.6 -0.3 0.045
2.65 -0.3 0.05125
2.7 -0.3 0.058
2.75 -0.3 0.06525
2.8 -0.3 0.073
2.85 -0.3 0.08125
2.9 -0.3 0.09
2.95 -0.3 0.09925
3 -0.3 0.109
3.05 -0.3 0.11925
3.1 -0.3 0.13
3.15 -0.3 0.14125
3.2 -0.3 0.153
3.25 -0.3 0.16525
3.3 -0.3 0.178
3.35 -0.3 0.19125
3.4 -0.3 0.205
3.45 -0.3 0.21925
3.5 -0.3 0.234
3.55 -0.3 0.24925
3.6 -0.3 0.265
3.65 -0.3 0.28125
3.7 -0.3 0.298
3.75 -0.3 0.31525
3.8 -0.3 0.333
3.85 -0.3 0.35125
3.9 -0.3 0.37
3.95 -0.3 0.38925
4 -0.3 0.409
0 -0.25 0.40625
0.05 -0.25 0.3865
0.1 -0.25 0.36725
0.15 -0.25 0.3485
0.2 -0.25 0.33025
0.25 -0.25 0.3125
0.3 -0.25 0.29525
0.35 -0.25 0.2785
0.4 -0.25 0.26225
0.45 -0.25 0.2465
0.5 -0.25 0.23125
0.55 -0.25 0.2165
0.6 -0.25 0.20225
0.65 -0.25 0.1885
0.7 -0.25 0.17525
0.75 -0.25 0.1625
0.8 -0.25 0.15025
0.85 -0.25 0.1385
0.9 -0.25 0.12725
0.95 -0.25 0.1165
1 -0.25 0.10625
1.05 -0.25 0.0965
1.1 -0.25 0.08725
1.15 -0.25 0.0785
1.2 -0.25 0.07025
1.25 -0.25 0.0625
1.3 -0.25 0.05525
1.35 -0.25 0.0485
1.4 -0.25 0.04225
1.45 -0.25 0.0365
1.5 -0.25 0.03125
1.55 -0.25 0.0265
1.6 -0.25 0.02225
1.65 -0.25 0.0185
1.7 -0.25 0.01525
1.75 -0.25 0.0125
1.8 -0.25 0.01025
1.85 -0.25 0.0085
1.9 -0.25 0.00725
1.95 -0.25 0.0065
2 -0.25 0.00625
2.05 -0.25 0.0065
2.1 -0.25 0.00725
2.15 -0.25 0.0085
2.2 -0.25 0.01025
2.25 -0.25 0.0125
2.3 -0.25 0.01525
2.35 -0.25 0.0185
2.4 -0.25 0.02225
2.45 -0.25 0.0265
2.5 -0.25 0.03125
2.55 -0.25 0.0365
2.6 -0.25 0.04225
2.65 -0.25 0.0485
2.7 -0.25 0.05525
2.75 -0.25 0.0625
2.8 -0.25 0.07025
2.85 -0.25 0.0785
2.9 -0.25 0.08725
2.95 -0.25 0.0965
3 -0.25 0.10625
3.05 -0.25 0.1165
3.1 -0.25 0.12725
3.15 -0.25 0.1385
3.2 -0.25 0.15025
3.25 -0.25 0.1625
3.3 -0.25 0.17525
3.35 -0.25 0.1885
3.4 -0.25 0.20225
3.45 -0.25 0.2165
3.5 -0.25 0.23125
3.55 -0.25 0.2465
3.6 -0.25 0.26225
3.65 -0.25 0.2785
3.7 -0.25 0.29525
3.75 -0.25 0.3125
3.8 -0.25 0.33025
3.85 -0.25 0.3485
3.9 -0.25 0.36725
3.95 -0.25 0.3865
4 -0.25 0.40625
0 -0.2 0.404
0.05 -0.2 0.38425
0.1 -0.2 0.365
0.15 -0.2 0.34625
0.2 -0.2 0.328
0.25 -0.2 0.31025
0.3 -0.2 0.293
0.35 -0.2 0.27625
0.4 -0.2 0.26
0.45 -0.2 0.24425
0.5 -0.2 0.229
0.55 -0.2 0.21425
0.6 -0.2 0.2
0.65 -0.2 0.18625
0.7 -0.2 0.173
0.75 -0.2 0.16025
0.8 -0.2 0.148
0.85 -0.2 0.13625
0.9 -0.2 0.125
0.95 -0.2 0.11425
1 -0.2 0.104
1.05 -0.2 0.09425
1.1 -0.2 0.085
1.15 -0.2 0.07625
1.2 -0.2 0.068
1.25 -0.2 0.06025
1.3 -0.2 0.053
1.35 -0.2 0.04625
1.4 -0.2 0.04
1.45 -0.2 0.03425
1.5 -0.2 0.029
1.55 -0.2 0.02425
1.6 -0.2 0.02
1.65 -0.2 0.01625
1.7 -0.2 0.013
1.75 -0.2 0.01025
1.8 -0.2 0.008
1.85 -0.2 0.00625
1.9 -0.2 0.005
1.95 -0.2 0.00425
2 -0.2 0.004
2.05 -0.2 0.00425
2.1 -0.2 0.005
2.15 -0.2 0.00625
2.2 -0.2 0.008
2.25 -0.2 0.01025
2.3 -0.2 0.013
2.35 -0.2 0.01625
2.4 -0.2 0.02
2.45 -0.2 0.02425
2.5 -0.2 0.029
2.55 -0.2 0.03425
2.6 -0.2 0.04
2.65 -0.2 0.04625
2.7 -0.2 0.053
2.75 -0.2 0.06025
2.8 -0.2 0.068
2.85 -0.2 0.07625
2.9 -0.2 0.085
2.95 -0.2 0.09425
3 -0.2 0.104
3.05 -0.2 0.11425
3.1 -0.2 0.125
3.15 -0.2 0.13625
3.2 -0.2 0.148
3.25 -0.2 0.16025
3.3 -0.2 0.173
3.35 -0.2 0.18625
3.4 -0.2 0.2
3.45 -0.2 0.21425
3.5 -0.2 0.229
3.55 -0.2 0.24425
3.6 -0.2 0.26
3.65 -0.2 0.27625
3.7 -0.2 0.293
3.75 -0.2 0.31025
3.8 -0.2 0.328
3.85 -0.2 0.34625
3.9 -0.2 0.365
3.95 -0.2 0.38425
4 -0.2 0.404
0 -0.15 0.40225
0.05 -0.15 0.3825
0.1 -0.15 0.36325
0.15 -0.15 0.3445
0.2 -0.15 0.32625
0.25 -0.15 0.3085
0.3 -0.15 0.29125
0.35 -0.15 0.2745
0.4 -0.15 0.25825
0.45 -0.15 0.2425
0.5 -0.15 0.22725
0.55 -0.15 0.2125
0.6 -0.15 0.19825
0.65 -0.15 0.1845
0.7 -0.15 0.17125
0.75 -0.15 0.1585
0.8 -0.15 0.14625
0.85 -0.15 0.1345
0.9 -0.15 0.12325
0.95 -0.15 0.1125
1 -0.15 0.10225
1.05 -0.15 0.0925
1.1 -0.15 0.08325
1.15 -0.15 0.0745
1.2 -0.15 0.06625
1.25 -0.15 0.0585
1.3 -0.15 0.05125
1.35 -0.15 0.0445
1.4 -0.15 0.03825
1.45 -0.15 0.0325
1.5 -0.15 0.02725
1.55 -0.15 0.0225
1.6 -0.15 0.01825
1.65 -0.15 0.0145
1.7 -0.15 0.01125
1.75 -0.15 0.0085
1.8 -0.15 0.00625
1.85 -0.15 0.0045
1.9 -0.15 0.00325
1.95 -0.15 0.0025
2 -0.15 0.00225
2.05 -0.15 0.0025
2.1 -0.15 0.00325
2.15 -0.15 0.0045
2.2 -0.15 0.00625
2.25 -0.15 0.0085
2.3 -0.15 0.01125
2.35 -0.15 0.0145
2.4 -0.15 0.01825
2.45 -0.15 0.0225
2.5 -0.15 0.02725
2.55 -0.15 0.0325
2.6 -0.15 0.03825
2.65 -0.15 0.0445
2.7 -0.15 0.05125
2.75 -0.15 0.0585
2.8 -0.15 0.06625
2.85 -0.15 0.0745
2.9 -0.15 0.08325
2.95 -0.15 0.0925
3 -0.15 0.10225
3.05 -0.15 0.1125
3.1 -0.15 0.12325
3.15 -0.15 0.1345
3.2 -0.15 0.14625
3.25 -0.15 0.1585
3.3 -0.15 0.17125
3.35 -0.15 0.1845
3.4 -0.15 0.19825
3.45 -0.15 0.2125
3.5 -0.15 0.22725
3.55 -0.15 0.2425
3.6 -0.15 0.25825
3.65 -0.15 0.2745
3.7 -0.15 0.29125
3.75 -0.15 0.3085
3.8 -0.15 0.32625
3.85 -0.15 0.3445
3.9 -0.15 0.36325
3.95 -0.15 0.3825
4 -0.15 0.40225
0 -0.1 0.401
0.05 -0.1 0.38125
0.1 -0.1 0.362
0.15 -0.1 0.34325
0.2 -0.1 0.325
0.25 -0.1 0.30725
0.3 -0.1 0.29
0.35 -0.1 0.27325
0.4 -0.1 0.257
0.45 -0.1 0.24125
0.5 -0.1 0.226
0.55 -0.1 0.21125
0.6 -0.1 0.197
0.65 -0.1 0.18325
0.7 -0.1 0.17
0.75 -0.1 0.15725
0.8 -0.1 0.145
0.85 -0.1 0.13325
0.9 -0.1 0.122
0.95 -0.1 0.11125
1 -0.1 0.101
1.05 -0.1 0.09125
1.1 -0.1 0.082
1.15 -0.1 0.07325
1.2 -0.1 0.065
1.25 -0.1 0.05725
1.3 -0.1 0.05
1.35 -0.1 0.04325
1.4 -0.1 0.037
1.45 -0.1 0.03125
1.5 -0.1 0.026
1.55 -0.1 0.02125
1.6 -0.1 0.017
1.65 -0.1 0.01325
1.7 -0.1 0.01
1.75 -0.1 0.00725
1.8 -0.1 0.005
1.85 -0.1 0.00325
1.9 -0.1 0.002
1.95 -0.1 0.00125
2 -0.1 0.001
2.05 -0.1 0.00125
2.1 -0.1 0.002
2.15 -0.1 0.00325
2.2 -0.1 0.005
2.25 -0.1 0.00725
2.3 -0.1 0.01
2.35 -0.1 0.01325
2.4 -0.1 0.017
2.45 -0.1 0.02125
2.5 -0.1 0.026
2.55 -0.1 0.03125
2.6 -0.1 0.037
2.65 -0.1 0.04325
2.7 -0.1 0.05
2.75 -0.1 0.05725
2.8 -0.1 0.065
2.85 -0.1 0.07325
2.9 -0.1 0.082
2.95 -0.1 0.09125
3 -0.1 0.101
3.05 -0.1 0.11125
3.1 -0.1 0.122
3.15 -0.1 0.13325
3.2 -0.1 0.145
3.25 -0.1 0.15725
3.3 -0.1 0.17
3.35 -0.1 0.18325
3.4 -0.1 0.197
3.45 -0.1 0.21125
3.5 -0.1 0.226
3.55 -0.1 0.24125
3.6 -0.1 0.257
3.65 -0.1 0.27325
3.7 -0.1 0.29
3.75 -0.1 0.30725
3.8 -0.1 0.325
3.85 -0.1 0.34325
3.9 -0.1 0.362
3.95 -0.1 0.38125
4 -0.1 0.401
0 -0.05 0.40025
0.05 -0.05 0.3805
0.1 -0.05 0.36125
0.15 -0.05 0.3425
0.2 -0.05 0.32425
0.25 -0.05 0.3065
0.3 -0.05 0.28925
0.35 -0.05 0.2725
0.4 -0.05 0.25625
0.45 -0.05 0.2405
0.5 -0.05 0.22525
0.55 -0.05 0.2105
0.6 -0.05 0.19625
0.65 -0.05 0.1825
0.7 -0.05 0.16925
0.75 -0.05 0.1565
0.8 -0.05 0.14425
0.85 -0.05 0.1325
0.9 -0.05 0.12125
0.95 -0.05 0.1105
1 -0.05 0.10025
1.05 -0.05 0.0905
1.1 -0.05 0.08125
1.15 -0.05 0.0725
1.2 -0.05 0.06425
1.25 -0.05 0.0565
1.3 -0.05 0.04925
1.35 -0.05 0.0425
1.4 -0.05 0.03625
1.45 -0.05 0.0305
1.5 -0.05 0.02525
1.55 -0.05 0.0205
1.6 -0.05 0.01625
1.65 -0.05 0.0125
1.7 -0.05 0.00925
1.75 -0.05 0.0065
1.8 -0.05 0.00425
1.85 -0.05 0.0025
1.9 -0.05 0.00125
1.95 -0.05 0.0005
2 -0.05 0.00025
2.05 -0.05 0.0005
2.1 -0.05 0.00125
2.15 -0.05 0.0025
2.2 -0.05 0.00425
2.25 -0.05 0.0065
2.3 -0.05 0.00925
2.35 -0.05 0.0125
2.4 -0.05 0.01625
2.45 -0.05 0.0205
2.5 -0.05 0.02525
2.55 -0.05 0.0305
2.6 -0.05 0.03625
2.65 -0.05 0.0425
2.7 -0.05 0.04925
2.75 -0.05 0.0565
2.8 -0.05 0.06425
2.85 -0.05 0.0725
2.9 -0.05 0.08125
2.95 -0.05 0.0905
3 -0.05 0.10025
3.05 -0.05 0.1105
3.1 -0.05 0.12125
3.15 -0.05 0.1325
3.2 -0.05 0.14425
3.25 -0.05 0.1565
3.3 -0.05 0.16925
3.35 -0.05 0.1825
3.4 -0.05 0.19625
3.45 -0.05 0.2105
3.5 -0.05 0.22525
3.55 -0.05 0.2405
3.6 -0.05 0.25625
3.65 -0.05 0.2725
3.7 -0.05 0.28925
3.75 -0.05 0.3065
3.8 -0.05 0.32425
3.85 -0.05 0.3425
3.9 -0.05 0.36125
3.95 -0.05 0.3805
4 -0.05 0.40025
0 0 0.4
0.05 0 0.38025
0.1 0 0.361
0.15 0 0.34225
0.2 0 0.324
0.25 0 0.30625
0.3 0 0.289
0.35 0 0.27225
0.4 0 0.256
0.45 0 0.24025
0.5 0 0.225
0.55 0 0.21025
0.6 0 0.196
0.65 0 0.18225
0.7 0 0.169
0.75 0 0.15625
0.8 0 0.144
0.85 0 0.13225
0.9 0 0.121
0.95 0 0.11025
1 0 0.1
1.05 0 0.09025
1.1 0 0.081
1.15 0 0.07225
1.2 0 0.064
1.25 0 0.05625
1.3 0 0.049
1.35 0 0.04225
1.4 0 0.036
1.45 0 0.03025
1.5 0 0.025
1.55 0 0.02025
1.6 0 0.016
1.65 0 0.01225
1.7 0 0.009
1.75 0 0.00625
1.8 0 0.004
1.85 0 0.00225
1.9 0 0.001
1.95 0 0.00025
2 0 0
2.05 0 0.00025
2.1 0 0.001
2.15 0 0.00225
2.2 0 0.004
2.25 0 0.00625
2.3 0 0.009
2.35 0 0.01225
2.4 0 0.016
2.45 0 0.02025
2.5 0 0.025
2.55 0 0.03025
2.6 0 0.036
2.65 0 0.04225
2.7 0 0.049
2.75 0 0.05625
2.8 0 0.064
2.85 0 0.07225
2.9 0 0.081
2.95 0 0.09025
3 0 0.1
3.05 0 0.11025
3.1 0 0.121
3.15 0 0.13225
3.2 0 0.144
3.25 0 0.15625
3.3 0 0.169
3.35 0 0.18225
3.4 0 0.196
3.45 0 0.21025
3.5 0 0.225
3.55 0 0.24025
3.6 0 0.256
3.65 0 0.27225
3.7 0 0.289
3.75 0 0.30625
3.8 0 0.324
3.85 0 0.34225
3.9 0 0.361
3.95 0 0.38025
4 0 0.4
0 0.05 0.40025
0.05 0.05 0.3805
0.1 0.05 0.36125
0.15 0.05 0.3425
0.2 0.05 0.32425
0.25 0.05 0.3065
0.3 0.05 0.28925
0.35 0.05 0.2725
0.4 0.05 0.25625
0.45 0.05 0.2405
0.5 0.05 0.22525
0.55 0.05 0.2105
0.6 0.05 0.19625
0.65 0.05 0.1825
0.7 0.05 0.16925
0.75 0.05 0.1565
0.8 0.05 0.14425
0.85 0.05 0.1325
0.9 0.05 0.12125
0.95 0.05 0.1105
1 0.05 0.10025
1.05 0.05 0.0905
1.1 0.05 0.08125
1.15 0.05 0.0725
1.2 0.05 0.06425
1.25 0.05 0.0565
1.3 0.05 0.04925
1.35 0.05 0.0425
1.4 0.05 0.03625
1.45 0.05 0.0305
1.5 0.05 0.02525
1.55 0.05 0.0205
1.6 0.05 0.01625
1.65 0.05 0.0125
1.7 0.05 0.00925
1.75 0.05 0.0065
1.8 0.05 0.00425
1.85 0.05 0.0025
1.9 0.05 0.00125
1.95 0.05 0.0005
2 0.05 0.00025
2.05 0.05 0.0005
2.1 0.05 0.00125
2.15 0.05 0.0025
2.2 0.05 0.00425
2.25 0.05 0.0065
2.3 0.05 0.00925
2.35 0.05 0.0125
2.4 0.05 0.01625
2.45 0.05 0.0205
2.5 0.05 0.02525
2.55 0.05 0.0305
2.6 0.05 0.03625
2.65 0.05 0.0425
2.7 0.05 0.04925
2.75 0.05 0.0565
2.8 0.05 0.06425
2.85 0.05 0.0725
2.9 0.05 0.08125
2.95 0.05 0.0905
3 0.05 0.10025
3.05 0.05 0.1105
3.1 0.05 0.12125
3.15 0.05 0.1325
3.2 0.05 0.14425
3.25 0.05 0.1565
3.3 0.05 0.16925
3.35 0.05 0.1825
3.4 0.05 0.19625
3.45 0.05 0.2105
3.5 0.05 0.22525
3.55 0.05 0.2405
3.6 0.05 0.25625
3.65 0.05 0.2725
3.7 0.05 0.28925
3.75 0.05 0.3065
3.8 0.05 0.32425
3.85 0.05 0.3425
3.9 0.05 0.36125
3.95 0.05 0.3805
4 0.05 0.40025
0 0.1 0.401
0.05 0.1 0.38125
0.1 0.1 0.362
0.15 0.1 0.34325
0.2 0.1 0.325
0.25 0.1 0.30725
0.3 0.1 0.29
0.35 0.1 0.27325
0.4 0.1 0.257
0.45 0.1 0.24125
0.5 0.1 0.226
0.55 0.1 0.21125
0.6 0.1 0.197
0.65 0.1 0.18325
0.7 0.1 0.17
0.75 0.1 0.15725
0.8 0.1 0.145
0.85 0.1 0.13325
0.9 0.1 0.122
0.95 0.1 0.11125
1 0.1 0.101
1.05 0.1 0.09125
1.1 0.1 0.082
1.15 0.1 0.07325
1.2 0.1 0.065
1.25 0.1 0.05725
1.3 0.1 0.05
1.35 0.1 0.04325
1.4 0.1 0.037
1.45 0.1 0.03125
1.5 0.1 0.026
1.55 0.1 0.02125
1.6 0.1 0.017
1.65 0.1 0.01325
1.7 0.1 0.01
1.75 0.1 0.00725
1.8 0.1 0.005
1.85 0.1 0.00325
1.9 0.1 0.002
1.95 0.1 0.00125
2 0.1 0.001
2.05 0.1 0.00125
2.1 0.1 0.002
2.15 0.1 0.00325
2.2 0.1 0.005
2.25 0.1 0.00725
2.3 0.1 0.01
2.35 0.1 0.01325
2.4 0.1 0.017
2.45 0.1 0.02125
2.5 0.1 0.026
2.55 0.1 0.03125
2.6 0.1 0.037
2.65 0.1 0.04325
2.7 0.1 0.05
2.75 0.1 0.05725
2.8 0.1 0.065
2.85 0.1 0.07325
2.9 0.1 0.082
2.95 0.1 0.09125
3 0.1 0.101
3.05 0.1 0.11125
3.1 0.1 0.122
3.15 0.1 0.13325
3.2 0.1 0.145
3.25 0.1 0.15725
3.3 0.1 0.17
3.35 0.1 0.18325
3.4 0.1 0.197
3.45 0.1 0.21125
3.5 0.1 0.226
3.55 0.1 0.24125
3.6 0.1 0.257
3.65 0.1 0.27325
3.7 0.1 0.29
3.75 0.1 0.30725
3.8 0.1 0.325
3.85 0.1 0.34325
3.9 0.1 0.362
3.95 0.1 0.38125
4 0.1 0.401
0 0.15 0.40225
0.05 0.15 0.3825
0.1 0.15 0.36325
0.15 0.15 0.3445
0.2 0.15 0.32625
0.25 0.15 0.3085
0.3 0.15 0.29125
0.35 0.15 0.2745
0.4 0.15 0.25825
0.45 0.15 0.2425
0.5 0.15 0.22725
0.55 0.15 0.2125
0.6 0.15 0.19825
0.65 0.15 0.1845
0.7 0.15 0.17125
0.75 0.15 0.1585
0.8 0.15 0.14625
0.85 0.15 0.1345
0.9 0.15 0.12325
0.95 0.15 0.1125
1 0.15 0.10225
1.05 0.15 0.0925
1.1 0.15 0.08325
1.15 0.15 0.0745
1.2 0.15 0.06625
1.25 0.15 0.0585
1.3 0.15 0.05125
1.35 0.15 0.0445
1.4 0.15 0.03825
1.45 0.15 0.0325
1.5 0.15 0.02725
1.55 0.15 0.0225
1.6 0.15 0.01825
1.65 0.15 0.0145
1.7 0.15 0.01125
1.75 0.15 0.0085
1.8 0.15 0.00625
1.85 0.15 0.0045
1.9 0.15 0.00325
1.95 0.15 0.0025
2 0.15 0.00225
2.05 0.15 0.0025
2.1 0.15 0.00325
2.15 0.15 0.0045
2.2 0.15 0.00625
2.25 0.15 0.0085
2.3 0.15 0.01125
2.35 0.15 0.0145
2.4 0.15 0.01825
2.45 0.15 0.0225
2.5 0.15 0.02725
2.55 0.15 0.0325
2.6 0.15 0.03825
2.65 0.15 0.0445
2.7 0.15 0.05125
2.75 0.15 0.0585
2.8 0.15 0.06625
2.85 0.15 0.0745
2.9 0.15 0.08325
2.95 0.15 0.0925
3 0.15 0.10225
3.05 0.15 0.1125
3.1 0.15 0.12325
3.15 0.15 0.1345
3.2 0.15 0.14625
3.25 0.15 0.1585
3.3 0.15 0.17125
3.35 0.15 0.1845
3.4 0.15 0.19825
3.45 0.15 0.2125
3.5 0.15 0.22725
3.55 0.15 0.2425
3.6 0.15 0.25825
3.65 0.15 0.2745
3.7 0.15 0.29125
3.75 0.15 0.3085
3.8 0.15 0.32625
3.85 0.15 0.3445
3.9 0.15 0.36325
3.95 0.15 0.3825
4 0.15 0.40225
0 0.2 0.404
0.05 0.2 0.38425
0.1 0.2 0.365
0.15 0.2 0.34625
0.2 0.2 0.328
0.25 0.2 0.31025
0.3 0.2 0.293
0.35 0.2 0.27625
0.4 0.2 0.26
0.45 0.2 0.24425
0.5 0.2 0.229
0.55 0.2 0.21425
0.6 0.2 0.2
0.65 0.2 0.18625
0.7 0.2 0.173
0.75 0.2 0.16025
0.8 0.2 0.148
0.85 0.2 0.13625
0.9 0.2 0.125
0.95 0.2 0.11425
1 0.2 0.104
1.05 0.2 0.09425
1.1 0.2 0.085
1.15 0.2 0.07625
1.2 0.2 0.068
1.25 0.2 0.06025
1.3 0.2 0.053
1.35 0.2 0.04625
1.4 0.2 0.04
1.45 0.2 0.03425
1.5 0.2 0.029
1.55 0.2 0.02425
1.6 0.2 0.02
1.65 0.2 0.01625
1.7 0.2 0.013
1.75 0.2 0.01025
1.8 0.2 0.008
1.85 0.2 0.00625
1.9 0.2 0.005
1.95 0.2 0.00425
2 0.2 0.004
2.05 0.2 0.00425
2.1 0.2 0.005
2.15 0.2 0.00625
2.2 0.2 0.008
2.25 0.2 0.01025
2.3 0.2 0.013
2.35 0.2 0.01625
2.4 0.2 0.02
2.45 0.2 0.02425
2.5 0.2 0.029
2.55 0.2 0.03425
2.6 0.2 0.04
2.65 0.2 0.04625
2.7 0.2 0.053
2.75 0.2 0.06025
2.8 0.2 0.068
2.85 0.2 0.07625
2.9 0.2 0.085
2.95 0.2 0.09425
3 0.2 0.104
3.05 0.2 0.11425
3.1 0.2 0.125
3.15 0.2 0.13625
3.2 0.2 0.148
3.25 0.2 0.16025
3.3 0.2 0.173
3.35 0.2 0.18625
3.4 0.2 0.2
3.45 0.2 0.21425
3.5 0.2 0.229
3.55 0.2 0.24425
3.6 0.2 0.26
3.65 0.2 0.27625
3.7 0.2 0.293
3.75 0.2 0.31025
3.8 0.2 0.328
3.85 0.2 0.34625
3.9 0.2 0.365
3.95 0.2 0.38425
4 0.2 0.404
0 0.25 0.40625
0.05 0.25 0.3865
0.1 0.25 0.36725
0.15 0.25 0.3485
0.2 0.25 0.33025
0.25 0.25 0.3125
0.3 0.25 0.29525
0.35 0.25 0.2785
0.4 0.25 0.26225
0.45 0.25 0.2465
0.5 0.25 0.23125
0.55 0.25 0.2165
0.6 0.25 0.20225
0.65 0.25 0.1885
0.7 0.25 0.17525
0.75 0.25 0.1625
0.8 0.25 0.15025
0.85 0.25 0.1385
0.9 0.25 0.12725
0.95 0.25 0.1165
1 0.25 0.10625
1.05 0.25 0.0965
1.1 0.25 0.08725
1.15 0.25 0.0785
1.2 0.25 0.07025
1.25 0.25 0.0625
1.3 0.25 0.05525
1.35 0.25 0.0485
1.4 0.25 0.04225
1.45 0.25 0.0365
1.5 0.25 0.03125
1.55 0.25 0.0265
1.6 0.25 0.02225
1.65 0.25 0.0185
1.7 0.25 0.01525
1.75 0.25 0.0125
1.8 0.25 0.01025
1.85 0.25 0.0085
1.9 0.25 0.00725
1.95 0.25 0.0065
2 0.25 0.00625
2.05 0.25 0.0065
2.1 0.25 0.00725
2.15 0.25 0.0085
2.2 0.25 0.01025
2.25 0.25 0.0125
2.3 0.25 0.01525
2.35 0.25 0.0185
2.4 0.25 0.02225
2.45 0.25 0.0265
2.5 0.25 0.03125
2.55 0.25 0.0365
2.6 0.25 0.04225
2.65 0.25 0.0485
2.7 0.25 0.05525
2.75 0.25 0.0625
2.8 0.25 0.07025
2.85 0.25 0.0785
2.9 0.25 0.08725
2.95 0.25 0.0965
3 0.25 0.10625
3.05 0.25 0.1165
3.1 0.25 0.12725
3.15 0.25 0.1385
3.2 0.25 0.15025
3.25 0.25 0.1625
3.3 0.25 0.17525
3.35 0.25 0.1885
3.4 0.25 0.20225
3.45 0.25 0.2165
3.5 0.25 0.23125
3.55 0.25 0.2465
3.6 0.25 0.26225
3.65 0.25 0.2785
3.7 0.25 0.29525
3.75 0.25 0.3125
3.8 0.25 0.33025
3.85 0.25 0.3485
3.9 0.25 0.36725
3.95 0.25 0.3865
4 0.25 0.40625
0 0.3 0.409
0.05 0.3 0.38925
0.1 0.3 0.37
0.15 0.3 0.35125
0.2 0.3 0.333
0.25 0.3 0.31525
0.3 0.3 0.298
0.35 0.3 0.28125
0.4 0.3 0.265
0.45 0.3 0.24925
0.5 0.3 0.234
0.55 0.3 0.21925
0.6 0.3 0.205
0.65 0.3 0.19125
0.7 0.3 0.178
0.75 0.3 0.16525
0.8 0.3 0.153
0.85 0.3 0.14125
0.9 0.3 0.13
0.95 0.3 0.11925
1 0.3 0.109
1.05 0.3 0.09925
1.1 0.3 0.09
1.15 0.3 0.08125
1.2 0.3 0.073
1.25 0.3 0.06525
1.3 0.3 0.058
1.35 0.3 0.05125
1.4 0.3 0.045
1.45 0.3 0.03925
1.5 0.3 0.034
1.55 0.3 0.02925
1.6 0.3 0.025
1.65 0.3 0.02125
1.7 0.3 0.018
1.75 0.3 0.01525
1.8 0.3 0.013
1.85 0.3 0.01125
1.9 0.3 0.01
1.95 0.3 0.00925
2 0.3 0.009
2.05 0.3 0.00925
2.1 0.3 0.01
2.15 0.3 0.01125
2.2 0.3 0.013
2.25 0.3 0.01525
2.3 0.3 0.018
2.35 0.3 0.02125
2.4 0.3 0.025
2.45 0.3 0.02925
2.5 0.3 0.034
2.55 0.3 0.03925
2.6 0.3 0.045
2.65 0.3 0.05125
2.7 0.3 0.058
2.75 0.3 0.06525
2.8 0.3 0.073
2.85 0.3 0.08125
2.9 0.3 0.09
2.95 0.3 0.09925
3 0.3 0.109
3.05 0.3 0.11925
3.1 0.3 0.13
3.15 0.3 0.14125
3.2 0.3 0.153
3.25 0.3 0.16525
3.3 0.3 0.178
3.35 0.3 0.19125
3.4 0.3 0.205
3.45 0.3 0.21925
3.5 0.3 0.234
3.55 0.3 0.24925
3.6 0.3 0.265
3.65 0.3 0.28125
3.7 0.3 0.298
3.75 0.3 0.31525
3.8 0.3 0.333
3.85 0.3 0.35125
3.9 0.3 0.37
3.95 0.3 0.38925
4 0.3 0.409
0 0.35 0.41225
0.05 0.35 0.3925
0.1 0.35 0.37325
0.15 0.35 0.3545
0.2 0.35 0.33625
0.25 0.35 0.3185
0.3 0.35 0.30125
0.35 0.35 0.2845
0.4 0.35 0.26825
0.45 0.35 0.2525
0.5 0.35 0.23725
0.55 0.35 0.2225
0.6 0.35 0.20825
0.65 0.35 0.1945
0.7 0.35 0.18125
0.75 0.35 0.1685
0.8 0.35 0.15625
0.85 0.35 0.1445
0.9 0.35 0.13325
0.95 0.35 0.1225
1 0.35 0.11225
1.05 0.35 0.1025
1.1 0.35 0.09325
1.15 0.35 0.0845
1.2 0.35 0.07625
1.25 0.35 0.0685
1.3 0.35 0.06125
1.35 0.35 0.0545
1.4 0.35 0.04825
1.45 0.35 0.0425
1.5 0.35 0.03725
1.55 0.35 0.0325
1.6 0.35 0.02825
1.65 0.35 0.0245
1.7 0.35 0.02125
1.75 0.35 0.0185
1.8 0.35 0.01625
1.85 0.35 0.0145
1.9 0.35 0.01325
1.95 0.35 0.0125
2 0.35 0.01225
2.05 0.35 0.0125
2.1 0.35 0.01325
2.15 0.35 0.0145
2.2 0.35 0.01625
2.25 0.35 0.0185
2.3 0.35 0.02125
2.35 0.35 0.0245
2.4 0.35 0.02825
2.45 0.35 0.0325
2.5 0.35 0.03725
2.55 0.35 0.0425
2.6 0.35 0.04825
2.65 0.35 0.0545
2.7 0.35 0.06125
2.75 0.35 0.0685
2.8 0.35 0.07625
2.85 0.35 0.0845
2.9 0.35 0.09325
2.95 0.35 0.1025
3 0.35 0.11225
3.05 0.35 0.1225
3.1 0.35 0.13325
3.15 0.35 0.1445
3.2 0.35 0.15625
3.25 0.35 0.1685
3.3 0.35 0.18125
3.35 0.35 0.1945
3.4 0.35 0.20825
3.45 0.35 0.2225
3.5 0.35 0.23725
3.55 0.35 0.2525
3.6 0.35 0.26825
3.65 0.35 0.2845
3.7 0.35 0.30125
3.75 0.35 0.3185
3.8 0.35 0.33625
3.85 0.35 0.3545
3.9 0.35 0.37325
3.95 0.35 0.3925
4 0.35 0.41225
0 0.4 0.416
0.05 0.4 0.39625
0.1 0.4 0.377
0.15 0.4 0.35825
0.2 0.4 0.34
0.25 0.4 0.32225
0.3 0.4 0.305
0.35 0.4 0.28825
0.4 0.4 0.272
0.45 0.4 0.25625
0.5 0.4 0.241
0.55 0.4 0.22625
0.6 0.4 0.212
0.65 0.4 0.19825
0.7 0.4 0.185
0.75 0.4 0.17225
0.8 0.4 0.16
0.85 0.4 0.14825
0.9 0.4 0.137
0.95 0.4 0.12625
1 0.4 0.116
1.05 0.4 0.10625
1.1 0.4 0.097
1.15 0.4 0.08825
1.2 0.4 0.08
1.25 0.4 0.07225
1.3 0.4 0.065
1.35 0.4 0.05825
1.4 0.4 0.052
1.45 0.4 0.04625
1.5 0.4 0.041
1.55 0.4 0.03625
1.6 0.4 0.032
1.65 0.4 0.02825
1.7 0.4 0.025
1.75 0.4 0.02225
1.8 0.4 0.02
1.85 0.4 0.01825
1.9 0.4 0.017
1.95 0.4 0.01625
2 0.4 0.016
2.05 0.4 0.01625
2.1 0.4 0.017
2.15 0.4 0.01825
2.2 0.4 0.02
2.25 0.4 0.02225
2.3 0.4 0.025
2.35 0.4 0.02825
2.4 0.4 0.032
2.45 0.4 0.03625
2.5 0.4 0.041
2.55 0.4 0.04625
2.6 0.4 0.052
2.65 0.4 0.05825
2.7 0.4 0.065
2.75 0.4 0.07225
2.8 0.4 0.08
2.85 0.4 0.08825
2.9 0.4 0.097
2.95 0.4 0.10625
3 0.4 0.116
3.05 0.4 0.12625
3.1 0.4 0.137
3.15 0.4 0.14825
3.2 0.4 0.16
3.25 0.4 0.17225
3.3 0.4 0.185
3.35 0.4 0.19825
3.4 0.4 0.212
3.45 0.4 0.22625
3.5 0.4 0.241
3.55 0.4 0.25625
3.6 0.4 0.272
3.65 0.4 0.28825
3.7 0.4 0.305
3.75 0.4 0.32225
3.8 0.4 0.34
3.85 0.4 0.35825
3.9 0.4 0.377
3.95 0.4 0.39625
4 0.4 0.416
0 0.45 0.42025
0.05 0.45 0.4005
0.1 0.45 0.38125
0.15 0.45 0.3625
0.2 0.45 0.34425
0.25 0.45 0.3265
0.3 0.45 0.30925
0.35 0.45 0.2925
0.4 0.45 0.27625
0.45 0.45 0.2605
0.5 0.45 0.24525
0.55 0.45 0.2305
0.6 0.45 0.21625
0.65 0.45 0.2025
0.7 0.45 0.18925
0.75 0.45 0.1765
0.8 0.45 0.16425
0.85 0.45 0.1525
0.9 0.45 0.14125
0.95 0.45 0.1305
1 0.45 0.12025
1.05 0.45 0.1105
1.1 0.45 0.10125
1.15 0.45 0.0925
1.2 0.45 0.08425
1.25 0.45 0.0765
1.3 0.45 0.06925
1.35 0.45 0.0625
1.4 0.45 0.05625
1.45 0.45 0.0505
1.5 0.45 0.04525
1.55 0.45 0.0405
1.6 0.45 0.03625
1.65 0.45 0.0325
1.7 0.45 0.02925
1.75 0.45 0.0265
1.8 0.45 0.02425
1.85 0.45 0.0225
1.9 0.45 0.02125
1.95 0.45 0.0205
2 0.45 0.02025
2.05 0.45 0.0205
2.1 0.45 0.02125
2.15 0.45 0.0225
2.2 0.45 0.02425
2.25 0.45 0.0265
2.3 0.45 0.02925
2.35 0.45 0.0325
2.4 0.45 0.03625
2.45 0.45 0.0405
2.5 0.45 0.04525
2.55 0.45 0.0505
2.6 0.45 0.05625
2.65 0.45 0.0625
2.7 0.45 0.06925
2.75 0.45 0.0765
2.8 0.45 0.08425
2.85 0.45 0.0925
2.9 0.45 0.10125
2.95 0.45 0.1105
3 0.45 0.12025
3.05 0.45 0.1305
3.1 0.45 0.14125
3.15 0.45 0.1525
3.2 0.45 0.16425
3.25 0.45 0.1765
3.3 0.45 0.18925
3.35 0.45 0.2025
3.4 0.45 0.21625
3.45 0.45 0.2305
3.5 0.45 0.24525
3.55 0.45 0.2605
3.6 0.45 0.27625
3.65 0.45 0.2925
3.7 0.45 0.30925
3.75 0.45 0.3265
3.8 0.45 0.34425
3.85 0.45 0.3625
3.9 0.45 0.38125
3.95 0.45 0.4005
4 0.45 0.42025
0 0.5 0.425
0.05 0.5 0.40525
0.1 0.5 0.386
0.15 0.5 0.36725
0.2 0.5 0.349
0.25 0.5 0.33125
0.3 0.5 0.314
0.35 0.5 0.29725
0.4 0.5 0.281
0.45 0.5 0.26525
0.5 0.5 0.25
0.55 0.5 0.23525
0.6 0.5 0.221
0.65 0.5 0.20725
0.7 0.5 0.194
0.75 0.5 0.18125
0.8 0.5 0.169
0.85 0.5 0.15725
0.9 0.5 0.146
0.95 0.5 0.13525
1 0.5 0.125
1.05 0.5 0.11525
1.1 0.5 0.106
1.15 0.5 0.09725
1.2 0.5 0.089
1.25 0.5 0.08125
1.3 0.5 0.074
1.35 0.5 0.06725
1.4 0.5 0.061
1.45 0.5 0.05525
1.5 0.5 0.05
1.55 0.5 0.04525
1.6 0.5 0.041
1.65 0.5 0.03725
1.7 0.5 0.034
1.75 0.5 0.03125
1.8 0.5 0.029
1.85 0.5 0.02725
1.9 0.5 0.026
1.95 0.5 0.02525
2 0.5 0.025
2.05 0.5 0.02525
2.1 0.5 0.026
2.15 0.5 0.02725
2.2 0.5 0.029
2.25 0.5 0.03125
2.3 0.5 0.034
2.35 0.5 0.03725
2.4 0.5 0.041
2.45 0.5 0.04525
2.5 0.5 0.05
2.55 0.5 0.05525
2.6 0.5 0.061
2.65 0.5 0.06725
2.7 0.5 0.074
2.75 0.5 0.08125
2.8 0.5 0.089
2.85 0.5 0.09725
2.9 0.5 0.106
2.95 0.5 0.11525
3 0.5 0.125
3.05 0.5 0.13525
3.1 0.5 0.146
3.15 0.5 0.15725
3.2 0.5 0.169
3.25 0.5 0.18125
3.3 0.5 0.194
3.35 0.5 0.20725
3.4 0.5 0.221
3.45 0.5 0.23525
3.5 0.5 0.25
3.55 0.5 0.26525
3.6 0.5 0.281
3.65 0.5 0.29725
3.7 0.5 0.314
3.75 0.5 0.33125
3.8 0.5 0.349
3.85 0.5 0.36725
3.9 0.5 0.386
3.95 0.5 0.40525
4 0.5 0.425
0 0.55 0.43025
0.05 0.55 0.4105
0.1 0.55 0.39125
0.15 0.55 0.3725
0.2 0.55 0.35425
0.25 0.55 0.3365
0.3 0.55 0.31925
0.35 0.55 0.3025
0.4 0.55 0.28625
0.45 0.55 0.2705
0.5 0.55 0.25525
0.55 0.55 0.2405
0.6 0.55 0.22625
0.65 0.55 0.2125
0.7 0.55 0.19925
0.75 0.55 0.1865
0.8 0.55 0.17425
0.85 0.55 0.1625
0.9 0.55 0.15125
0.95 0.55 0.1405
1 0.55 0.13025
1.05 0.55 0.1205
1.1 0.55 0.11125
1.15 0.55 0.1025
1.2 0.55 0.09425
1.25 0.55 0.0865
1.3 0.55 0.07925
1.35 0.55 0.0725
1.4 0.55 0.06625
1.45 0.55 0.0605
1.5 0.55 0.05525
1.55 0.55 0.0505
1.6 0.55 0.04625
1.65 0.55 0.0425
1.7 0.55 0.03925
1.75 0.55 0.0365
1.8 0.55 0.03425
1.85 0.55 0.0325
1.9 0.55 0.03125
1.95 0.55 0.0305
2 0.55 0.03025
2.05 0.55 0.0305
2.1 0.55 0.03125
2.15 0.55 0.0325
2.2 0.55 0.03425
2.25 0.55 0.0365
2.3 0.55 0.03925
2.35 0.55 0.0425
2.4 0.55 0.04625
2.45 0.55 0.0505
2.5 0.55 0.05525
2.55 0.55 0.0605
2.6 0.55 0.06625
2.65 0.55 0.0725
2.7 0.55 0.07925
2.75 0.55 0.0865
2.8 0.55 0.09425
2.85 0.55 0.1025
2.9 0.55 0.11125
2.95 0.55 0.1205
3 0.55 0.13025
3.05 0.55 0.1405
3.1 0.55 0.15125
3.15 0.55 0.1625
3.2 0.55 0.17425
3.25 0.55 0.1865
3.3 0.55 0.19925
3.35 0.55 0.2125
3.4 0.55 0.22625
3.45 0.55 0.2405
3.5 0.55 0.25525
3.55 0.55 0.2705
3.6 0.55 0.28625
3.65 0.55 0.3025
3.7 0.55 0.31925
3.75 0.55 0.3365
3.8 0.55 0.35425
3.85 0.55 0.3725
3.9 0.55 0.39125
3.95 0.55 0.4105
4 0.55 0.43025
0 0.6 0.436
0.05 0.6 0.41625
0.1 0.6 0.397
0.15 0.6 0.37825
0.2 0.6 0.36
0.25 0.6 0.34225
0.3 0.6 0.325
0.35 0.6 0.30825
0.4 0.6 0.292
0.45 0.6 0.27625
0.5 0.6 0.261
0.55 0.6 0.24625
0.6 0.6 0.232
0.65 0.6 0.21825
0.7 0.6 0.205
0.75 0.6 0.19225
0.8 0.6 0.18
0.85 0.6 0.16825
0.9 0.6 0.157
0.95 0.6 0.14625
1 0.6 0.136
1.05 0.6 0.12625
1.1 0.6 0.117
1.15 0.6 0.10825
1.2 0.6 0.1
1.25 0.6 0.09225
1.3 0.6 0.085
1.35 0.6 0.07825
1.4 0.6 0.072
1.45 0.6 0.06625
1.5 0.6 0.061
1.55 0.6 0.05625
1.6 0.6 0.052
1.65 0.6 0.04825
1.7 0.6 0.045
1.75 0.6 0.04225
1.8 0.6 0.04
1.85 0.6 0.03825
1.9 0.6 0.037
1.95 0.6 0.03625
2 0.6 0.036
2.05 0.6 0.03625
2.1 0.6 0.037
2.15 0.6 0.03825
2.2 0.6 0.04
2.25 0.6 0.04225
2.3 0.6 0.045
2.35 0.6 0.04825
2.4 0.6 0.052
2.45 0.6 0.05625
2.5 0.6 0.061
2.55 0.6 0.06625
2.6 0.6 0.072
2.65 0.6 0.07825
2.7 0.6 0.085
2.75 0.6 0.09225
2.8 0.6 0.1
2.85 0.6 0.10825
2.9 0.6 0.117
2.95 0.6 0.12625
3 0.6 0.136
3.05 0.6 0.14625
3.1 0.6 0.157
3.15 0.6 0.16825
3.2 0.6 0.18
3.25 0.6 0.19225
3.3 0.6 0.205
3.35 0.6 0.21825
3.4 0.6 0.232
3.45 0.6 0.24625
3.5 0.6 0.261
3.55 0.6 0.27625
3.6 0.6 0.292
3.65 0.6 0.30825
3.7 0.6 0.325
3.75 0.6 0.34225
3.8 0.6 0.36
3.85 0.6 0.37825
3.9 0.6 0.397
3.95 0.6 0.41625
4 0.6 0.436
0 0.65 0.44225
0.05 0.65 0.4225
0.1 0.65 0.40325
0.15 0.65 0.3845
0.2 0.65 0.36625
0.25 0.65 0.3485
0.3 0.65 0.33125
0.35 0.65 0.3145
0.4 0.65 0.29825
0.45 0.65 0.2825
0.5 0.65 0.26725
0.55 0.65 0.2525
0.6 0.65 0.23825
0.65 0.65 0.2245
0.7 0.65 0.21125
0.75 0.65 0.1985
0.8 0.65 0.18625
0.85 0.65 0.1745
0.9 0.65 0.16325
0.95 0.65 0.1525
1 0.65 0.14225
1.05 0.65 0.1325
1.1 0.65 0.12325
1.15 0.65 0.1145
1.2 0.65 0.10625
1.25 0.65 0.0985
1.3 0.65 0.09125
1.35 0.65 0.0845
1.4 0.65 0.07825
1.45 0.65 0.0725
1.5 0.65 0.06725
1.55 0.65 0.0625
1.6 0.65 0.05825
1.65 0.65 0.0545
1.7 0.65 0.05125
1.75 0.65 0.0485
1.8 0.65 0.04625
1.85 0.65 0.0445
1.9 0.65 0.04325
1.95 0.65 0.0425
2 0.65 0.04225
2.05 0.65 0.0425
2.1 0.65 0.04325
2.15 0.65 0.0445
2.2 0.65 0.04625
2.25 0.65 0.0485
2.3 0.65 0.05125
2.35 0.65 0.0545
2.4 0.65 0.05825
2.45 0.65 0.0625
2.5 0.65 0.06725
2.55 0.65 0.0725
2.6 0.65 0.07825
2.65 0.65 0.0845
2.7 0.65 0.09125
2.75 0.65 0.0985
2.8 0.65 0.10625
2.85 0.65 0.1145
2.9 0.65 0.12325
2.95 0.65 0.1325
3 0.65 0.14225
3.05 0.65 0.1525
3.1 0.65 0.16325
3.15 0.65 0.1745
3.2 0.65 0.18625
3.25 0.65 0.1985
3.3 0.65 0.21125
3.35 0.65 0.2245
3.4 0.65 0.23825
3.45 0.65 0.2525
3.5 0.65 0.26725
3.55 0.65 0.2825
3.6 0.65 0.29825
3.65 0.65 0.3145
3.7 0.65 0.33125
3.75 0.65 0.3485
3.8 0.65 0.36625
3.85 0.65 0.3845
3.9 0.65 0.40325
3.95 0.65 0.4225
4 0.65 0.44225
0 0.7 0.449
0.05 0.7 0.42925
0.1 0.7 0.41
0.15 0.7 0.39125
0.2 0.7 0.373
0.25 0.7 0.35525
0.3 0.7 0.338
0.35 0.7 0.32125
0.4 0.7 0.305
0.45 0.7 0.28925
0.5 0.7 0.274
0.55 0.7 0.25925
0.6 0.7 0.245
0.65 0.7 0.23125
0.7 0.7 0.218
0.75 0.7 0.20525
0.8 0.7 0.193
0.85 0.7 0.18125
0.9 0.7 0.17
0.95 0.7 0.15925
1 0.7 0.149
1.05 0.7 0.13925
1.1 0.7 0.13
1.15 0.7 0.12125
1.2 0.7 0.113
1.25 0.7 0.10525
1.3 0.7 0.098
1.35 0.7 0.09125
1.4 0.7 0.085
1.45 0.7 0.07925
1.5 0.7 0.074
1.55 0.7 0.06925
1.6 0.7 0.065
1.65 0.7 0.06125
1.7 0.7 0.058
1.75 0.7 0.05525
1.8 0.7 0.053
1.85 0.7 0.05125
1.9 0.7 0.05
1.95 0.7 0.04925
2 0.7 0.049
2.05 0.7 0.04925
2.1 0.7 0.05
2.15 0.7 0.05125
2.2 0.7 0.053
2.25 0.7 0.05525
2.3 0.7 0.058
2.35 0.7 0.06125
2.4 0.7 0.065
2.45 0.7 0.06925
2.5 0.7 0.074
2.55 0.7 0.07925
2.6 0.7 0.085
2.65 0.7 0.09125
2.7 0.7 0.098
2.75 0.7 0.10525
2.8 0.7 0.113
2.85 0.7 0.12125
2.9 0.7 0.13
2.95 0.7 0.13925
3 0.7 0.149
3.05 0.7 0.15925
3.1 0.7 0.17
3.15 0.7 0.18125
3.2 0.7 0.193
3.25 0.7 0.20525
3.3 0.7 0.218
3.35 0.7 0.23125
3.4 0.7 0.245
3.45 0.7 0.25925
3.5 0.7 0.274
3.55 0.7 0.28925
3.6 0.7 0.305
3.65 0.7 0.32125
3.7 0.7 0.338
3.75 0.7 0.35525
3.8 0.7 0.373
3.85 0.7 0.39125
3.9 0.7 0.41
3.95 0.7 0.42925
4 0.7 0.449
0 0.75 0.45625
0.05 0.75 0.4365
0.1 0.75 0.41725
0.15 0.75 0.3985
0.2 0.75 0.38025
0.25 0.75 0.3625
0.3 0.75 0.34525
0.35 0.75 0.3285
0.4 0.75 0.31225
0.45 0.75 0.2965
0.5 0.75 0.28125
0.55 0.75 0.2665
0.6 0.75 0.25225
0.65 0.75 0.2385
0.7 0.75 0.22525
0.75 0.75 0.2125
0.8 0.75 0.20025
0.85 0.75 0.1885
0.9 0.75 0.17725
0.95 0.75 0.1665
1 0.75 0.15625
1.05 0.75 0.1465
1.1 0.75 0.13725
1.15 0.75 0.1285
1.2 0.75 0.12025
1.25 0.75 0.1125
1.3 0.75 0.10525
1.35 0.75 0.0985
1.4 0.75 0.09225
1.45 0.75 0.0865
1.5 0.75 0.08125
1.55 0.75 0.0765
1.6 0.75 0.07225
1.65 0.75 0.0685
1.7 0.75 0.06525
1.75 0.75 0.0625
1.8 0.75 0.06025
1.85 0.75 0.0585
1.9 0.75 0.05725
1.95 0.75 0.0565
2 0.75 0.05625
2.05 0.75 0.0565
2.1 0.75 0.05725
2.15 0.75 0.0585
2.2 0.75 0.06025
2.25 0.75 0.0625
2.3 0.75 0.06525
2.35 0.75 0.0685
2.4 0.75 0.07225
2.45 0.75 0.0765
2.5 0.75 0.08125
2.55 0.75 0.0865
2.6 0.75 0.09225
2.65 0.75 0.0985
2.7 0.75 0.10525
2.75 0.75 0.1125
2.8 0.75 0.12025
2.85 0.75 0.1285
2.9 0.75 0.13725
2.95 0.75 0.1465
3 0.75 0.15625
3.05 0.75 0.1665
3.1 0.75 0.17725
3.15 0.75 0.1885
3.2 0.75 0.20025
3.25 0.75 0.2125
3.3 0.75 0.22525
3.35 0.75 0.2385
3.4 0.75 0.25225
3.45 0.75 0.2665
3.5 0.75 0.28125
3.55 0.75 0.2965
3.6 0.75 0.31225
3.65 0.75 0.3285
3.7 0.75 0.34525
3.75 0.75 0.3625
3.8 0.75 0.38025
3.85 0.75 0.3985
3.9 0.75 0.41725
3.95 0.75 0.4365
4 0.75 0.45625
0 0.8 0.464
0.05 0.8 0.44425
0.1 0.8 0.425
0.15 0.8 0.40625
0.2 0.8 0.388
0.25 0.8 0.37025
0.3 0.8 0.353
0.35 0.8 0.33625
0.4 0.8 0.32
0.45 0.8 0.30425
0.5 0.8 0.289
0.55 0.8 0.27425
0.6 0.8 0.26
0.65 0.8 0.24625
0.7 0.8 0.233
0.75 0.8 0.22025
0.8 0.8 0.208
0.85 0.8 0.19625
0.9 0.8 0.185
0.95 0.8 0.17425
1 0.8 0.164
1.05 0.8 0.15425
1.1 0.8 0.145
1.15 0.8 0.13625
1.2 0.8 0.128
1.25 0.8 0.12025
1.3 0.8 0.113
1.35 0.8 0.10625
1.4 0.8 0.1
1.45 0.8 0.09425
1.5 0.8 0.089
1.55 0.8 0.08425
1.6 0.8 0.08
1.65 0.8 0.07625
1.7 0.8 0.073
1.75 0.8 0.07025
1.8 0.8 0.068
1.85 0.8 0.06625
1.9 0.8 0.065
1.95 0.8 0.06425
2 0.8 0.064
2.05 0.8 0.06425
2.1 0.8 0.065
2.15 0.8 0.06625
2.2 0.8 0.068
2.25 0.8 0.07025
2.3 0.8 0.073
2.35 0.8 0.07625
2.4 0.8 0.08
2.45 0.8 0.08425
2.5 0.8 0.089
2.55 0.8 0.09425
2.6 0.8 0.1
2.65 0.8 0.10625
2.7 0.8 0.113
2.75 0.8 0.12025
2.8 0.8 0.128
2.85 0.8 0.13625
2.9 0.8 0.145
2.95 0.8 0.15425
3 0.8 0.164
3.05 0.8 0.17425
3.1 0.8 0.185
3.15 0.8 0.19625
3.2 0.8 0.208
3.25 0.8 0.22025
3.3 0.8 0.233
3.35 0.8 0.24625
3.4 0.8 0.26
3.45 0.8 0.27425
3.5 0.8 0.289
3.55 0.8 0.30425
3.6 0.8 0.32
3.65 0.8 0.33625
3.7 0.8 0.353
3.75 0.8 0.37025
3.8 0.8 0.388
3.85 0.8 0.40625
3.9 0.8 0.425
3.95 0.8 0.44425
4 0.8 0.464
0 0.85 0.47225
0.05 0.85 0.4525
0.1 0.85 0.43325
0.15 0.85 0.4145
0.2 0.85 0.39625
0.25 0.85 0.3785
0.3 0.85 0.36125
0.35 0.85 0.3445
0.4 0.85 0.32825
0.45 0.85 0.3125
0.5 0.85 0.29725
0.55 0.85 0.2825
0.6 0.85 0.26825
0.65 0.85 0.2545
0.7 0.85 0.24125
0.75 0.85 0.2285
0.8 0.85 0.21625
0.85 0.85 0.2045
0.9 0.85 0.19325
0.95 0.85 0.1825
1 0.85 0.17225
1.05 0.85 0.1625
1.1 0.85 0.15325
1.15 0.85 0.1445
1.2 0.85 0.13625
1.25 0.85 0.1285
1.3 0.85 0.12125
1.35 0.85 0.1145
1.4 0.85 0.10825
1.45 0.85 0.1025
1.5 0.85 0.09725
1.55 0.85 0.0925
1.6 0.85 0.08825
1.65 0.85 0.0845
1.7 0.85 0.08125
1.75 0.85 0.0785
1.8 0.85 0.07625
1.85 0.85 0.0745
1.9 0.85 0.07325
1.95 0.85 0.0725
2 0.85 0.07225
2.05 0.85 0.0725
2.1 0.85 0.07325
2.15 0.85 0.0745
2.2 0.85 0.07625
2.25 0.85 0.0785
2.3 0.85 0.08125
2.35 0.85 0.0845
2.4 0.85 0.08825
2.45 0.85 0.0925
2.5 0.85 0.09725
2.55 0.85 0.1025
2.6 0.85 0.10825
2.65 0.85 0.1145
2.7 0.85 0.12125
2.75 0.85 0.1285
2.8 0.85 0.13625
2.85 0.85 0.1445
2.9 0.85 0.15325
2.95 0.85 0.1625
3 0.85 0.17225
3.05 0.85 0.1825
3.1 0.85 0.19325
3.15 0.85 0.2045
3.2 0.85 0.21625
3.25 0.85 0.2285
3.3 0.85 0.24125
3.35 0.85 0.2545
3.4 0.85 0.26825
3.45 0.85 0.2825
3.5 0.85 0.29725
3.55 0.85 0.3125
3.6 0.85 0.32825
3.65 0.85 0.3445
3.7 0.85 0.36125
3.75 0.85 0.3785
3.8 0.85 0.39625
3.85 0.85 0.4145
3.9 0.85 0.43325
3.95 0.85 0.4525
4 0.85 0.47225
0 0.9 0.481
0.05 0.9 0.46125
0.1 0.9 0.442
0.15 0.9 0.42325
0.2 0.9 0.405
0.25 0.9 0.38725
0.3 0.9 0.37
0.35 0.9 0.35325
0.4 0.9 0.337
0.45 0.9 0.32125
0.5 0.9 0.306
0.55 0.9 0.29125
0.6 0.9 0.277
0.65 0.9 0.26325
0.7 0.9 0.25
0.75 0.9 0.23725
0.8 0.9 0.225
0.85 0.9 0.21325
0.9 0.9 0.202
0.95 0.9 0.19125
1 0.9 0.181
1.05 0.9 0.17125
1.1 0.9 0.162
1.15 0.9 0.15325
1.2 0.9 0.145
1.25 0.9 0.13725
1.3 0.9 0.13
1.35 0.9 0.12325
1.4 0.9 0.117
1.45 0.9 0.11125
1.5 0.9 0.106
1.55 0.9 0.10125
1.6 0.9 0.097
1.65 0.9 0.09325
1.7 0.9 0.09
1.75 0.9 0.08725
1.8 0.9 0.085
1.85 0.9 0.08325
1.9 0.9 0.082
1.95 0.9 0.08125
2 0.9 0.081
2.05 0.9 0.08125
2.1 0.9 0.082
2.15 0.9 0.08325
2.2 0.9 0.085
2.25 0.9 0.08725
2.3 0.9 0.09
2.35 0.9 0.09325
2.4 0.9 0.097
2.45 0.9 0.10125
2.5 0.9 0.106
2.55 0.9 0.11125
2.6 0.9 0.117
2.65 0.9 0.12325
2.7 0.9 0.13
2.75 0.9 0.13725
2.8 0.9 0.145
2.85 0.9 0.15325
2.9 0.9 0.162
2.95 0.9 0.17125
3 0.9 0.181
3.05 0.9 0.19125
3.1 0.9 0.202
3.15 0.9 0.21325
3.2 0.9 0.225
3.25 0.9 0.23725
3.3 0.9 0.25
3.35 0.9 0.26325
3.4 0.9 0.277
3.45 0.9 0.29125
3.5 0.9 0.306
3.55 0.9 0.32125
3.6 0.9 0.337
3.65 0.9 0.35325
3.7 0.9 0.37
3.75 0.9 0.38725
3.8 0.9 0.405
3.85 0.9 0.42325
3.9 0.9 0.442
3.95 0.9 0.46125
4 0.9 0.481
0 0.95 0.49025
0.05 0.95 0.4705
0.1 0.95 0.45125
0.15 0.95 0.4325
0.2 0.95 0.41425
0.25 0.95 0.3965
0.3 0.95 0.37925
0.35 0.95 0.3625
0.4 0.95 0.34625
0.45 0.95 0.3305
0.5 0.95 0.31525
0.55 0.95 0.3005
0.6 0.95 0.28625
0.65 0.95 0.2725
0.7 0.95 0.25925
0.75 0.95 0.2465
0.8 0.95 0.23425
0.85 0.95 0.2225
0.9 0.95 0.21125
0.95 0.95 0.2005
1 0.95 0.19025
1.05 0.95 0.1805
1.1 0.95 0.17125
1.15 0.95 0.1625
1.2 0.95 0.15425
1.25 0.95 0.1465
1.3 0.95 0.13925
1.35 0.95 0.1325
1.4 0.95 0.12625
1.45 0.95 0.1205
1.5 0.95 0.11525
1.55 0.95 0.1105
1.6 0.95 0.10625
1.65 0.95 0.1025
1.7 0.95 0.09925
1.75 0.95 0.0965
1.8 0.95 0.09425
1.85 0.95 0.0925
1.9 0.95 0.09125
1.95 0.95 0.0905
2 0.95 0.09025
2.05 0.95 0.0905
2.1 0.95 0.09125
2.15 0.95 0.0925
2.2 0.95 0.09425
2.25 0.95 0.0965
2.3 0.95 0.09925
2.35 0.95 0.1025
2.4 0.95 0.10625
2.45 0.95 0.1105
2.5 0.95 0.11525
2.55 0.95 0.1205
2.6 0.95 0.12625
2.65 0.95 0.1325
2.7 0.95 0.13925
2.75 0.95 0.1465
2.8 0.95 0.15425
2.85 0.95 0.1625
2.9 0.95 0.17125
2.95 0.95 0.1805
3 0.95 0.19025
3.05 0.95 0.2005
3.1 0.95 0.21125
3.15 0.95 0.2225
3.2 0.95 0.23425
3.25 0.95 0.2465
3.3 0.95 0.25925
3.35 0.95 0.2725
3.4 0.95 0.28625
3.45 0.95 0.3005
3.5 0.95 0.31525
3.55 0.95 0.3305
3.6 0.95 0.34625
3.65 0.95 0.3625
3.7 0.95 0.37925
3.75 0.95 0.3965
3.8 0.95 0.41425
3.85 0.95 0.4325
3.9 0.95 0.45125
3.95 0.95 0.4705
4 0.95 0.49025
0 1 0.5
0.05 1 0.48025
0.1 1 0.461
0.15 1 0.44225
0.2 1 0.424
0.25 1 0.40625
0.3 1 0.389
0.35 1 0.37225
0.4 1 0.356
0.45 1 0.34025
0.5 1 0.325
0.55 1 0.31025
0.6 1 0.296
0.65 1 0.28225
0.7 1 0.269
0.75 1 0.25625
0.8 1 0.244
0.85 1 0.23225
0.9 1 0.221
0.95 1 0.21025
1 1 0.2
1.05 1 0.19025
1.1 1 0.181
1.15 1 0.17225
1.2 1 0.164
1.25 1 0.15625
1.3 1 0.149
1.35 1 0.14225
1.4 1 0.136
1.45 1 0.13025
1.5 1 0.125
1.55 1 0.12025
1.6 1 0.116
1.65 1 0.11225
1.7 1 0.109
1.75 1 0.10625
1.8 1 0.104
1.85 1 0.10225
1.9 1 0.101
1.95 1 0.10025
2 1 0.1
2.05 1 0.10025
2.1 1 0.101
2.15 1 0.10225
2.2 1 0.104
2.25 1 0.10625
2.3 1 0.109
2.35 1 0.11225
2.4 1 0.116
2.45 1 0.12025
2.5 1 0.125
2.55 1 0.13025
2.6 1 0.136
2.65 1 0.14225
2.7 1 0.149
2.75 1 0.15625
2.8 1 0.164
2.85 1 0.17225
2.9 1 0.181
2.95 1 0.19025
3 1 0.2
3.05 1 0.21025
3.1 1 0.221
3.15 1 0.23225
3.2 1 0.244
3.25 1 0.25625
3.3 1 0.269
3.35 1 0.28225
3.4 1 0.296
3.45 1 0.31025
3.5 1 0.325
3.55 1 0.34025
3.6 1 0.356
3.65 1 0.37225
3.7 1 0.389
3.75 1 0.40625
3.8 1 0.424
3.85 1 0.44225
3.9 1 0.461
3.95 1 0.48025
4 1 0.5
0 1.05 0.51025
0.05 1.05 0.4905
0.1 1.05 0.47125
0.15 1.05 0.4525
0.2 1.05 0.43425
0.25 1.05 0.4165
0.3 1.05 0.39925
0.35 1.05 0.3825
0.4 1.05 0.36625
0.45 1.05 0.3505
0.5 1.05 0.33525
0.55 1.05 0.3205
0.6 1.05 0.30625
0.65 1.05 0.2925
0.7 1.05 0.27925
0.75 1.05 0.2665
0.8 1.05 0.25425
0.85 1.05 0.2425
0.9 1.05 0.23125
0.95 1.05 0.2205
1 1.05 0.21025
1.05 1.05 0.2005
1.1 1.05 0.19125
1.15 1.05 0.1825
1.2 1.05 0.17425
1.25 1.05 0.1665
1.3 1.05 0.15925
1.35 1.05 0.1525
1.4 1.05 0.14625
1.45 1.05 0.1405
1.5 1.05 0.13525
1.55 1.05 0.1305
1.6 1.05 0.12625
1.65 1.05 0.1225
1.7 1.05 0.11925
1.75 1.05 0.1165
1.8 1.05 0.11425
1.85 1.05 0.1125
1.9 1.05 0.11125
1.95 1.05 0.1105
2 1.05 0.11025
2.05 1.05 0.1105
2.1 1.05 0.11125
2.15 1.05 0.1125
2.2 1.05 0.11425
2.25 1.05 0.1165
2.3 1.05 0.11925
2.35 1.05 0.1225
2.4 1.05 0.12625
2.45 1.05 0.1305
2.5 1.05 0.13525
2.55 1.05 0.1405
2.6 1.05 0.14625
2.65 1.05 0.1525
2.7 1.05 0.15925
2.75 1.05 0.1665
2.8 1.05 0.17425
2.85 1.05 0.1825
2.9 1.05 0.19125
2.95 1.05 0.2005
3 1.05 0.21025
3.05 1.05 0.2205
3.1 1.05 0.23125
3.15 1.05 0.2425
3.2 1.05 0.25425
3.25 1.05 0.2665
3.3 1.05 0.27925
3.35 1.05 0.2925
3.4 1.05 0.30625
3.45 1.05 0.3205
3.5 1.05 0.33525
3.55 1.05 0.3505
3.6 1.05 0.36625
3.65 1.05 0.3825
3.7 1.05 0.39925
3.75 1.05 0.4165
3.8 1.05 0.43425
3.85 1.05 0.4525
3.9 1.05 0.47125
3.95 1.05 0.4905
4 1.05 0.51025
0 1.1 0.521
0.05 1.1 0.50125
0.1 1.1 0.482
0.15 1.1 0.46325
0.2 1.1 0.445
0.25 1.1 0.42725
0.3 1.1 0.41
0.35 1.1 0.39325
0.4 1.1 0.377
0.45 1.1 0.36125
0.5 1.1 0.346
0.55 1.1 0.33125
0.6 1.1 0.317
0.65 1.1 0.30325
0.7 1.1 0.29
0.75 1.1 0.27725
0.8 1.1 0.265
0.85 1.1 0.25325
0.9 1.1 0.242
0.95 1.1 0.23125
1 1.1 0.221
1.05 1.1 0.21125
1.1 1.1 0.202
1.15 1.1 0.19325
1.2 1.1 0.185
1.25 1.1 0.17725
1.3 1.1 0.17
1.35 1.1 0.16325
1.4 1.1 0.157
1.45 1.1 0.15125
1.5 1.1 0.146
1.55 1.1 0.14125
1.6 1.1 0.137
1.65 1.1 0.13325
1.7 1.1 0.13
1.75 1.1 0.12725
1.8 1.1 0.125
1.85 1.1 0.12325
1.9 1.1 0.122
1.95 1.1 0.12125
2 1.1 0.121
2.05 1.1 0.12125
2.1 1.1 0.122
2.15 1.1 0.12325
2.2 1.1 0.125
2.25 1.1 0.12725
2.3 1.1 0.13
2.35 1.1 0.13325
2.4 1.1 0.137
2.45 1.1 0.14125
2.5 1.1 0.146
2.55 1.1 0.15125
2.6 1.1 0.157
2.65 1.1 0.16325
2.7 1.1 0.17
2.75 1.1 0.17725
2.8 1.1 0.185
2.85 1.1 0.19325
2.9 1.1 0.202
2.95 1.1 0.21125
3 1.1 0.221
3.05 1.1 0.23125
3.1 1.1 0.242
3.15 1.1 0.25325
3.2 1.1 0.265
3.25 1.1 0.27725
3.3 1.1 0.29
3.35 1.1 0.30325
3.4 1.1 0.317
3.45 1.1 0.33125
3.5 1.1 0.346
3.55 1.1 0.36125
3.6 1.1 0.377
3.65 1.1 0.39325
3.7 1.1 0.41
3.75 1.1 0.42725
3.8 1.1 0.445
3.85 1.1 0.46325
3.9 1.1 0.482
3.95 1.1 0.50125
4 1.1 0.521
0 1.15 0.53225
0.05 1.15 0.5125
0.1 1.15 0.49325
0.15 1.15 0.4745
0.2 1.15 0.45625
0.25 1.15 0.4385
0.3 1.15 0.42125
0.35 1.15 0.4045
0.4 1.15 0.38825
0.45 1.15 0.3725
0.5 1.15 0.35725
0.55 1.15 0.3425
0.6 1.15 0.32825
0.65 1.15 0.3145
0.7 1.15 0.30125
0.75 1.15 0.2885
0.8 1.15 0.27625
0.85 1.15 0.2645
0.9 1.15 0.25325
0.95 1.15 0.2425
1 1.15 0.23225
1.05 1.15 0.2225
1.1 1.15 0.21325
1.15 1.15 0.2045
1.2 1.15 0.19625
1.25 1.15 0.1885
1.3 1.15 0.18125
1.35 1.15 0.1745
1.4 1.15 0.16825
1.45 1.15 0.1625
1.5 1.15 0.15725
1.55 1.15 0.1525
1.6 1.15 0.14825
1.65 1.15 0.1445
1.7 1.15 0.14125
1.75 1.15 0.1385
1.8 1.15 0.13625
1.85 1.15 0.1345
1.9 1.15 0.13325
1.95 1.15 0.1325
2 1.15 0.13225
2.05 1.15 0.1325
2.1 1.15 0.13325
2.15 1.15 0.1345
2.2 1.15 0.13625
2.25 1.15 0.1385
2.3 1.15 0.14125
2.35 1.15 0.1445
2.4 1.15 0.14825
2.45 1.15 0.1525
2.5 1.15 0.15725
2.55 1.15 0.1625
2.6 1.15 0.16825
2.65 1.15 0.1745
2.7 1.15 0.18125
2.75 1.15 0.1885
2.8 1.15 0.19625
2.85 1.15 0.2045
2.9 1.15 0.21325
2.95 1.15 0.2225
3 1.15 0.23225
3.05 1.15 0.2425
3.1 1.15 0.25325
3.15 1.15 0.2645
3.2 1.15 0.27625
3.25 1.15 0.2885
3.3 1.15 0.30125
3.35 1.15 0.3145
3.4 1.15 0.32825
3.45 1.15 0.3425
3.5 1.15 0.35725
3.55 1.15 0.3725
3.6 1.15 0.38825
3.65 1.15 0.4045
3.7 1.15 0.42125
3.75 1.15 0.4385
3.8 1.15 0.45625
3.85 1.15 0.4745
3.9 1.15 0.49325
3.95 1.15 0.5125
4 1.15 0.53225
0 1.2 0.544
0.05 1.2 0.52425
0.1 1.2 0.505
0.15 1.2 0.48625
0.2 1.2 0.468
0.25 1.2 0.45025
0.3 1.2 0.433
0.35 1.2 0.41625
0.4 1.2 0.4
0.45 1.2 0.38425
0.5 1.2 0.369
0.55 1.2 0.35425
0.6 1.2 0.34
0.65 1.2 0.32625
0.7 1.2 0.313
0.75 1.2 0.30025
0.8 1.2 0.288
0.85 1.2 0.27625
0.9 1.2 0.265
0.95 1.2 0.25425
1 1.2 0.244
1.05 1.2 0.23425
1.1 1.2 0.225
1.15 1.2 0.21625
1.2 1.2 0.208
1.25 1.2 0.20025
1.3 1.2 0.193
1.35 1.2 0.18625
1.4 1.2 0.18
1.45 1.2 0.17425
1.5 1.2 0.169
1.55 1.2 0.16425
1.6 1.2 0.16
1.65 1.2 0.15625
1.7 1.2 0.153
1.75 1.2 0.15025
1.8 1.2 0.148
1.85 1.2 0.14625
1.9 1.2 0.145
1.95 1.2 0.14425
2 1.2 0.144
2.05 1.2 0.14425
2.1 1.2 0.145
2.15 1.2 0.14625
2.2 1.2 0.148
2.25 1.2 0.15025
2.3 1.2 0.153
2.35 1.2 0.15625
2.4 1.2 0.16
2.45 1.2 0.16425
2.5 1.2 0.169
2.55 1.2 0.17425
2.6 1.2 0.18
2.65 1.2 0.18625
2.7 1.2 0.193
2.75 1.2 0.20025
2.8 1.2 0.208
2.85 1.2 0.21625
2.9 1.2 0.225
2.95 1.2 0.23425
3 1.2 0.244
3.05 1.2 0.25425
3.1 1.2 0.265
3.15 1.2 0.27625
3.2 1.2 0.288
3.25 1.2 0.30025
3.3 1.2 0.313
3.35 1.2 0.32625
3.4 1.2 0.34
3.45 1.2 0.35425
3.5 1.2 0.369
3.55 1.2 0.38425
3.6 1.2 0.4
3.65 1.2 0.41625
3.7 1.2 0.433
3.75 1.2 0.45025
3.8 1.2 0.468
3.85 1.2 0.48625
3.9 1.2 0.505
3.95 1.2 0.52425
4 1.2 0.544
0 1.25 0.55625
0.05 1.25 0.5365
0.1 1.25 0.51725
0.15 1.25 0.4985
0.2 1.25 0.48025
0.25 1.25 0.4625
0.3 1.25 0.44525
0.35 1.25 0.4285
0.4 1.25 0.41225
0.45 1.25 0.3965
0.5 1.25 0.38125
0.55 1.25 0.3665
0.6 1.25 0.35225
0.65 1.25 0.3385
0.7 1.25 0.32525
0.75 1.25 0.3125
0.8 1.25 0.30025
0.85 1.25 0.2885
0.9 1.25 0.27725
0.95 1.25 0.2665
1 1.25 0.25625
1.05 1.25 0.2465
1.1 1.25 0.23725
1.15 1.25 0.2285
1.2 1.25 0.22025
1.25 1.25 0.2125
1.3 1.25 0.20525
1.35 1.25 0.1985
1.4 1.25 0.19225
1.45 1.25 0.1865
1.5 1.25 0.18125
1.55 1.25 0.1765
1.6 1.25 0.17225
1.65 1.25 0.1685
1.7 1.25 0.16525
1.75 1.25 0.1625
1.8 1.25 0.16025
1.85 1.25 0.1585
1.9 1.25 0.15725
1.95 1.25 0.1565
2 1.25 0.15625
2.05 1.25 0.1565
2.1 1.25 0.15725
2.15 1.25 0.1585
2.2 1.25 0.16025
2.25 1.25 0.1625
2.3 1.25 0.16525
2.35 1.25 0.1685
2.4 1.25 0.17225
2.45 1.25 0.1765
2.5 1.25 0.18125
2.55 1.25 0.1865
2.6 1.25 0.19225
2.65 1.25 0.1985
2.7 1.25 0.20525
2.75 1.25 0.2125
2.8 1.25 0.22025
2.85 1.25 0.2285
2.9 1.25 0.23725
2.95 1.25 0.2465
3 1.25 0.25625
3.05 1.25 0.2665
3.1 1.25 0.27725
3.15 1.25 0.2885
3.2 1.25 0.30025
3.25 1.25 0.3125
3.3 1.25 0.32525
3.35 1.25 0.3385
3.4 1.25 0.35225
3.45 1.25 0.3665
3.5 1.25 0.38125
3.55 1.25 0.3965
3.6 1.25 0.41225
3.65 1.25 0.4285
3.7 1.25 0.44525
3.75 1.25 0.4625
3.8 1.25 0.48025
3.85 1.25 0.4985
3.9 1.25 0.51725
3.95 1.25 0.5365
4 1.25 0.55625
0 1.3 0.569
0.05 1.3 0.54925
0.1 1.3 0.53
0.15 1.3 0.51125
0.2 1.3 0.493
0.25 1.3 0.47525
0.3 1.3 0.458
0.35 1.3 0.44125
0.4 1.3 0.425
0.45 1.3 0.40925
0.5 1.3 0.394
0.55 1.3 0.37925
0.6 1.3 0.365
0.65 1.3 0.35125
0.7 1.3 0.338
0.75 1.3 0.32525
0.8 1.3 0.313
0.85 1.3 0.30125
0.9 1.3 0.29
0.95 1.3 0.27925
1 1.3 0.269
1.05 1.3 0.25925
1.1 1.3 0.25
1.15 1.3 0.24125
1.2 1.3 0.233
1.25 1.3 0.22525
1.3 1.3 0.218
1.35 1.3 0.21125
1.4 1.3 0.205
1.45 1.3 0.19925
1.5 1.3 0.194
1.55 1.3 0.18925
1.6 1.3 0.185
1.65 1.3 0.18125
1.7 1.3 0.178
1.75 1.3 0.17525
1.8 1.3 0.173
1.85 1.3 0.17125
1.9 1.3 0.17
1.95 1.3 0.16925
2 1.3 0.169
2.05 1.3 0.16925
2.1 1.3 0.17
2.15 1.3 0.17125
2.2 1.3 0.173
2.25 1.3 0.17525
2.3 1.3 0.178
2.35 1.3 0.18125
2.4 1.3 0.185
2.45 1.3 0.18925
2.5 1.3 0.194
2.55 1.3 0.19925
2.6 1.3 0.205
2.65 1.3 0.21125
2.7 1.3 0.218
2.75 1.3 0.22525
2.8 1.3 0.233
2.85 1.3 0.24125
2.9 1.3 0.25
2.95 1.3 0.25925
3 1.3 0.269
3.05 1.3 0.27925
3.1 1.3 0.29
3.15 1.3 0.30125
3.2 1.3 0.313
3.25 1.3 0.32525
3.3 1.3 0.338
3.35 1.3 0.35125
3.4 1.3 0.365
3.45 1.3 0.37925
3.5 1.3 0.394
3.55 1.3 0.40925
3.6 1.3 0.425
3.65 1.3 0.44125
3.7 1.3 0.458
3.75 1.3 0.47525
3.8 1.3 0.493
3.85 1.3 0.51125
3.9 1.3 0.53
3.95 1.3 0.54925
4 1.3 0.569
0 1.35 0.58225
0.05 1.35 0.5625
0.1 1.35 0.54325
0.15 1.35 0.5245
0.2 1.35 0.50625
0.25 1.35 0.4885
0.3 1.35 0.47125
0.35 1.35 0.4545
0.4 1.35 0.43825
0.45 1.35 0.4225
0.5 1.35 0.40725
0.55 1.35 0.3925
0.6 1.35 0.37825
0.65 1.35 0.3645
0.7 1.35 0.35125
0.75 1.35 0.3385
0.8 1.35 0.32625
0.85 1.35 0.3145
0.9 1.35 0.30325
0.95 1.35 0.2925
1 1.35 0.28225
1.05 1.35 0.2725
1.1 1.35 0.26325
1.15 1.35 0.2545
1.2 1.35 0.24625
1.25 1.35 0.2385
1.3 1.35 0.23125
1.35 1.35 0.2245
1.4 1.35 0.21825
1.45 1.35 0.2125
1.5 1.35 0.20725
1.55 1.35 0.2025
1.6 1.35 0.19825
1.65 1.35 0.1945
1.7 1.35 0.19125
1.75 1.35 0.1885
1.8 1.35 0.18625
1.85 1.35 0.1845
1.9 1.35 0.18325
1.95 1.35 0.1825
2 1.35 0.18225
2.05 1.35 0.1825
2.1 1.35 0.18325
2.15 1.35 0.1845
2.2 1.35 0.18625
2.25 1.35 0.1885
2.3 1.35 0.19125
2.35 1.35 0.1945
2.4 1.35 0.19825
2.45 1.35 0.2025
2.5 1.35 0.20725
2.55 1.35 0.2125
2.6 1.35 0.21825
2.65 1.35 0.2245
2.7 1.35 0.23125
2.75 1.35 0.2385
2.8 1.35 0.24625
2.85 1.35 0.2545
2.9 1.35 0.26325
2.95 1.35 0.2725
3 1.35 0.28225
3.05 1.35 0.2925
3.1 1.35 0.30325
3.15 1.35 0.3145
3.2 1.35 0.32625
3.25 1.35 0.3385
3.3 1.35 0.35125
3.35 1.35 0.3645
3.4 1.35 0.37825
3.45 1.35 0.3925
3.5 1.35 0.40725
3.55 1.35 0.4225
3.6 1.35 0.43825
3.65 1.35 0.4545
3.7 1.35 0.47125
3.75 1.35 0.4885
3.8 1.35 0.50625
3.85 1.35 0.5245
3.9 1.35 0.54325
3.95 1.35 0.5625
4 1.35 0.58225
0 1.4 0.596
0.05 1.4 0.57625
0.1 1.4 0.557
0.15 1.4 0.53825
0.2 1.4 0.52
0.25 1.4 0.50225
0.3 1.4 0.485
0.35 1.4 0.46825
0.4 1.4 0.452
0.45 1.4 0.43625
0.5 1.4 0.421
0.55 1.4 0.40625
0.6 1.4 0.392
0.65 1.4 0.37825
0.7 1.4 0.365
0.75 1.4 0.35225
0.8 1.4 0.34
0.85 1.4 0.32825
0.9 1.4 0.317
0.95 1.4 0.30625
1 1.4 0.296
1.05 1.4 0.28625
1.1 1.4 0.277
1.15 1.4 0.26825
1.2 1.4 0.26
1.25 1.4 0.25225
1.3 1.4 0.245
1.35 1.4 0.23825
1.4 1.4 0.232
1.45 1.4 0.22625
1.5 1.4 0.221
1.55 1.4 0.21625
1.6 1.4 0.212
1.65 1.4 0.20825
1.7 1.4 0.205
1.75 1.4 0.20225
1.8 1.4 0.2
1.85 1.4 0.19825
1.9 1.4 0.197
1.95 1.4 0.19625
2 1.4 0.196
2.05 1.4 0.19625
2.1 1.4 0.197
2.15 1.4 0.19825
2.2 1.4 0.2
2.25 1.4 0.20225
2.3 1.4 0.205
2.35 1.4 0.20825
2.4 1.4 0.212
2.45 1.4 0.21625
2.5 1.4 0.221
2.55 1.4 0.22625
2.6 1.4 0.232
2.65 1.4 0.23825
2.7 1.4 0.245
2.75 1.4 0.25225
2.8 1.4 0.26
2.85 1.4 0.26825
2.9 1.4 0.277
2.95 1.4 0.28625
3 1.4 0.296
3.05 1.4 0.30625
3.1 1.4 0.317
3.15 1.4 0.32825
3.2 1.4 0.34
3.25 1.4 0.35225
3.3 1.4 0.365
3.35 1.4 0.37825
3.4 1.4 0.392
3.45 1.4 0.40625
3.5 1.4 0.421
3.55 1.4 0.43625
3.6 1.4 0.452
3.65 1.4 0.46825
3.7 1.4 0.485
3.75 1.4 0.50225
3.8 1.4 0.52
3.85 1.4 0.53825
3.9 1.4 0.557
3.95 1.4 0.57625
4 1.4 0.596
0 1.45 0.61025
0.05 1.45 0.5905
0.1 1.45 0.57125
0.15 1.45 0.5525
0.2 1.45 0.53425
0.25 1.45 0.5165
0.3 1.45 0.49925
0.35 1.45 0.4825
0.4 1.45 0.46625
0.45 1.45 0.4505
0.5 1.45 0.43525
0.55 1.45 0.4205
0.6 1.45 0.40625
0.65 1.45 0.3925
0.7 1.45 0.37925
0.75 1.45 0.3665
0.8 1.45 0.35425
0.85 1.45 0.3425
0.9 1.45 0.33125
0.95 1.45 0.3205
1 1.45 0.31025
1.05 1.45 0.3005
1.1 1.45 0.29125
1.15 1.45 0.2825
1.2 1.45 0.27425
1.25 1.45 0.2665
1.3 1.45 0.25925
1.35 1.45 0.2525
1.4 1.45 0.24625
1.45 1.45 0.2405
1.5 1.45 0.23525
1.55 1.45 0.2305
1.6 1.45 0.22625
1.65 1.45 0.2225
1.7 1.45 0.21925
1.75 1.45 0.2165
1.8 1.45 0.21425
1.85 1.45 0.2125
1.9 1.45 0.21125
1.95 1.45 0.2105
2 1.45 0.21025
2.05 1.45 0.2105
2.1 1.45 0.21125
2.15 1.45 0.2125
2.2 1.45 0.21425
2.25 1.45 0.2165
2.3 1.45 0.21925
2.35 1.45 0.2225
2.4 1.45 0.22625
2.45 1.45 0.2305
2.5 1.45 0.23525
2.55 1.45 0.2405
2.6 1.45 0.24625
2.65 1.45 0.2525
2.7 1.45 0.25925
2.75 1.45 0.2665
2.8 1.45 0.27425
2.85 1.45 0.2825
2.9 1.45 0.29125
2.95 1.45 0.3005
3 1.45 0.31025
3.05 1.45 0.3205
3.1 1.45 0.33125
3.15 1.45 0.3425
3.2 1.45 0.35425
3.25 1.45 0.3665
3.3 1.45 0.37925
3.35 1.45 0.3925
3.4 1.45 0.40625
3.45 1.45 0.4205
3.5 1.45 0.43525
3.55 1.45 0.4505
3.6 1.45 0.46625
3.65 1.45 0.4825
3.7 1.45 0.49925
3.75 1.45 0.5165
3.8 1.45 0.53425
3.85 1.45 0.5525
3.9 1.45 0.57125
3.95 1.45 0.5905
4 1.45 0.61025
0 1.5 0.625
0.05 1.5 0.60525
0.1 1.5 0.586
0.15 1.5 0.56725
0.2 1.5 0.549
0.25 1.5 0.53125
0.3 1.5 0.514
0.35 1.5 0.49725
0.4 1.5 0.481
0.45 1.5 0.46525
0.5 1.5 0.45
0.55 1.5 0.43525
0.6 1.5 0.421
0.65 1.5 0.40725
0.7 1.5 0.394
0.75 1.5 0.38125
0.8 1.5 0.369
0.85 1.5 0.35725
0.9 1.5 0.346
0.95 1.5 0.33525
1 1.5 0.325
1.05 1.5 0.31525
1.1 1.5 0.306
1.15 1.5 0.29725
1.2 1.5 0.289
1.25 1.5 0.28125
1.3 1.5 0.274
1.35 1.5 0.26725
1.4 1.5 0.261
1.45 1.5 0.25525
1.5 1.5 0.25
1.55 1.5 0.24525
1.6 1.5 0.241
1.65 1.5 0.23725
1.7 1.5 0.234
1.75 1.5 0.23125
1.8 1.5 0.229
1.85 1.5 0.22725
1.9 1.5 0.226
1.95 1.5 0.22525
2 1.5 0.225
2.05 1.5 0.22525
2.1 1.5 0.226
2.15 1.5 0.22725
2.2 1.5 0.229
2.25 1.5 0.23125
2.3 1.5 0.234
2.35 1.5 0.23725
2.4 1.5 0.241
2.45 1.5 0.24525
2.5 1.5 0.25
2.55 1.5 0.25525
2.6 1.5 0.261
2.65 1.5 0.26725
2.7 1.5 0.274
2.75 1.5 0.28125
2.8 1.5 0.289
2.85 1.5 0.29725
2.9 1.5 0.306
2.95 1.5 0.31525
3 1.5 0.325
3.05 1.5 0.33525
3.1 1.5 0.346
3.15 1.5 0.35725
3.2 1.5 0.369
3.25 1.5 0.38125
3.3 1.5 0.394
3.35 1.5 0.40725
3.4 1.5 0.421
3.45 1.5 0.43525
3.5 1.5 0.45
3.55 1.5 0.46525
3.6 1.5 0.481
3.65 1.5 0.49725
3.7 1.5 0.514
3.75 1.5 0.53125
3.8 1.5 0.549
3.85 1.5 0.56725
3.9 1.5 0.586
3.95 1.5 0.60525
4 1.5 0.625
0 1.55 0.64025
0.05 1.55 0.6205
0.1 1.55 0.60125
0.15 1.55 0.5825
0.2 1.55 0.56425
0.25 1.55 0.5465
0.3 1.55 0.52925
0.35 1.55 0.5125
0.4 1.55 0.49625
0.45 1.55 0.4805
0.5 1.55 0.46525
0.55 1.55 0.4505
0.6 1.55 0.43625
0.65 1.55 0.4225
0.7 1.55 0.40925
0.75 1.55 0.3965
0.8 1.55 0.38425
0.85 1.55 0.3725
0.9 1.55 0.36125
0.95 1.55 0.3505
1 1.55 0.34025
1.05 1.55 0.3305
1.1 1.55 0.32125
1.15 1.55 0.3125
1.2 1.55 0.30425
1.25 1.55 0.2965
1.3 1.55 0.28925
1.35 1.55 0.2825
1.4 1.55 0.27625
1.45 1.55 0.2705
1.5 1.55 0.26525
1.55 1.55 0.2605
1.6 1.55 0.25625
1.65 1.55 0.2525
1.7 1.55 0.24925
1.75 1.55 0.2465
1.8 1.55 0.24425
1.85 1.55 0.2425
1.9 1.55 0.24125
1.95 1.55 0.2405
2 1.55 0.24025
2.05 1.55 0.2405
2.1 1.55 0.24125
2.15 1.55 0.2425
2.2 1.55 0.24425
2.25 1.55 0.2465
2.3 1.55 0.24925
2.35 1.55 0.2525
2.4 1.55 0.25625
2.45 1.55 0.2605
2.5 1.55 0.26525
2.55 1.55 0.2705
2.6 1.55 0.27625
2.65 1.55 0.2825
2.7 1.55 0.28925
2.75 1.55 0.2965
2.8 1.55 0.30425
2.85 1.55 0.3125
2.9 1.55 0.32125
2.95 1.55 0.3305
3 1.55 0.34025
3.05 1.55 0.3505
3.1 1.55 0.36125
3.15 1.55 0.3725
3.2 1.55 0.38425
3.25 1.55 0.3965
3.3 1.55 0.40925
3.35 1.55 0.4225
3.4 1.55 0.43625
3.45 1.55 0.4505
3.5 1.55 0.46525
3.55 1.55 0.4805
3.6 1.55 0.49625
3.65 1.55 0.5125
3.7 1.55 0.52925
3.75 1.55 0.5465
3.8 1.55 0.56425
3.85 1.55 0.5825
3.9 1.55 0.60125
3.95 1.55 0.6205
4 1.55 0.64025
0 1.6 0.656
0.05 1.6 0.63625
0.1 1.6 0.617
0.15 1.6 0.59825
0.2 1.6 0.58
0.25 1.6 0.56225
0.3 1.6 0.545
0.35 1.6 0.52825
0.4 1.6 0.512
0.45 1.6 0.49625
0.5 1.6 0.481
0.55 1.6 0.46625
0.6 1.6 0.452
0.65 1.6 0.43825
0.7 1.6 0.425
0.75 1.6 0.41225
0.8 1.6 0.4
0.85 1.6 0.38825
0.9 1.6 0.377
0.95 1.6 0.36625
1 1.6 0.356
1.05 1.6 0.34625
1.1 1.6 0.337
1.15 1.6 0.32825
1.2 1.6 0.32
1.25 1.6 0.31225
1.3 1.6 0.305
1.35 1.6 0.29825
1.4 1.6 0.292
1.45 1.6 0.28625
1.5 1.6 0.281
1.55 1.6 0.27625
1.6 1.6 0.272
1.65 1.6 0.26825
1.7 1.6 0.265
1.75 1.6 0.26225
1.8 1.6 0.26
1.85 1.6 0.25825
1.9 1.6 0.257
1.95 1.6 0.25625
2 1.6 0.256
2.05 1.6 0.25625
2.1 1.6 0.257
2.15 1.6 0.25825
2.2 1.6 0.26
2.25 1.6 0.26225
2.3 1.6 0.265
2.35 1.6 0.26825
2.4 1.6 0.272
2.45 1.6 0.27625
2.5 1.6 0.281
2.55 1.6 0.28625
2.6 1.6 0.292
2.65 1.6 0.29825
2.7 1.6 0.305
2.75 1.6 0.31225
2.8 1.6 0.32
2.85 1.6 0.32825
2.9 1.6 0.337
2.95 1.6 0.34625
3 1.6 0.356
3.05 1.6 0.36625
3.1 1.6 0.377
3.15 1.6 0.38825
3.2 1.6 0.4
3.25 1.6 0.41225
3.3 1.6 0.425
3.35 1.6 0.43825
3.4 1.6 0.452
3.45 1.6 0.46625
3.5 1.6 0.481
3.55 1.6 0.49625
3.6 1.6 0.512
3.65 1.6 0.52825
3.7 1.6 0.545
3.75 1.6 0.56225
3.8 1.6 0.58
3.85 1.6 0.59825
3.9 1.6 0.617
3.95 1.6 0.63625
4 1.6 0.656
0 1.65 0.67225
0.05 1.65 0.6525
0.1 1.65 0.63325
0.15 1.65 0.6145
0.2 1.65 0.59625
0.25 1.65 0.5785
0.3 1.65 0.56125
0.35 1.65 0.5445
0.4 1.65 0.52825
0.45 1.65 0.5125
0.5 1.65 0.49725
0.55 1.65 0.4825
0.6 1.65 0.46825
0.65 1.65 0.4545
0.7 1.65 0.44125
0.75 1.65 0.4285
0.8 1.65 0.41625
0.85 1.65 0.4045
0.9 1.65 0.39325
0.95 1.65 0.3825
1 1.65 0.37225
1.05 1.65 0.3625
1.1 1.65 0.35325
1.15 1.65 0.3445
1.2 1.65 0.33625
1.25 1.65 0.3285
1.3 1.65 0.32125
1.35 1.65 0.3145
1.4 1.65 0.30825
1.45 1.65 0.3025
1.5 1.65 0.29725
1.55 1.65 0.2925
1.6 1.65 0.28825
1.65 1.65 0.2845
1.7 1.65 0.28125
1.75 1.65 0.2785
1.8 1.65 0.27625
1.85 1.65 0.2745
1.9 1.65 0.27325
1.95 1.65 0.2725
2 1.65 0.27225
2.05 1.65 0.2725
2.1 1.65 0.27325
2.15 1.65 0.2745
2.2 1.65 0.27625
2.25 1.65 0.2785
2.3 1.65 0.28125
2.35 1.65 0.2845
2.4 1.65 0.28825
2.45 1.65 0.2925
2.5 1.65 0.29725
2.55 1.65 0.3025
2.6 1.65 0.30825
2.65 1.65 0.3145
2.7 1.65 0.32125
2.75 1.65 0.3285
2.8 1.65 0.33625
2.85 1.65 0.3445
2.9 1.65 0.35325
2.95 1.65 0.3625
3 1.65 0.37225
3.05 1.65 0.3825
3.1 1.65 0.39325
3.15 1.65 0.4045
3.2 1.65 0.41625
3.25 1.65 0.4285
3.3 1.65 0.44125
3.35 1.65 0.4545
3.4 1.65 0.46825
3.45 1.65 0.4825
3.5 1.65 0.49725
3.55 1.65 0.5125
3.6 1.65 0.52825
3.65 1.65 0.5445
3.7 1.65 0.56125
3.75 1.65 0.5785
3.8 1.65 0.59625
3.85 1.65 0.6145
3.9 1.65 0.63325
3.95 1.65 0.6525
4 1.65 0.67225
0 1.7 0.689
0.05 1.7 0.66925
0.1 1.7 0.65
0.15 1.7 0.63125
0.2 1.7 0.613
0.25 1.7 0.59525
0.3 1.7 0.578
0.35 1.7 0.56125
0.4 1.7 0.545
0.45 1.7 0.52925
0.5 1.7 0.514
0.55 1.7 0.49925
0.6 1.7 0.485
0.65 1.7 0.47125
0.7 1.7 0.458
0.75 1.7 0.44525
0.8 1.7 0.433
0.85 1.7 0.42125
0.9 1.7 0.41
0.95 1.7 0.39925
1 1.7 0.389
1.05 1.7 0.37925
1.1 1.7 0.37
1.15 1.7 0.36125
1.2 1.7 0.353
1.25 1.7 0.34525
1.3 1.7 0.338
1.35 1.7 0.33125
1.4 1.7 0.325
1.45 1.7 0.31925
1.5 1.7 0.314
1.55 1.7 0.30925
1.6 1.7 0.305
1.65 1.7 0.30125
1.7 1.7 0.298
1.75 1.7 0.29525
1.8 1.7 0.293
1.85 1.7 0.29125
1.9 1.7 0.29
1.95 1.7 0.28925
2 1.7 0.289
2.05 1.7 0.28925
2.1 1.7 0.29
2.15 1.7 0.29125
2.2 1.7 0.293
2.25 1.7 0.29525
2.3 1.7 0.298
2.35 1.7 0.30125
2.4 1.7 0.305
2.45 1.7 0.30925
2.5 1.7 0.314
2.55 1.7 0.31925
2.6 1.7 0.325
2.65 1.7 0.33125
2.7 1.7 0.338
2.75 1.7 0.34525
2.8 1.7 0.353
2.85 1.7 0.36125
2.9 1.7 0.37
2.95 1.7 0.37925
3 1.7 0.389
3.05 1.7 0.39925
3.1 1.7 0.41
3.15 1.7 0.42125
3.2 1.7 0.433
3.25 1.7 0.44525
3.3 1.7 0.458
3.35 1.7 0.47125
3.4 1.7 0.485
3.45 1.7 0.49925
3.5 1.7 0.514
3.55 1.7 0.52925
3.6 1.7 0.545
3.65 1.7 0.56125
3.7 1.7 0.578
3.75 1.7 0.59525
3.8 1.7 0.613
3.85 1.7 0.63125
3.9 1.7 0.65
3.95 1.7 0.66925
4 1.7 0.689
0 1.75 0.70625
0.05 1.75 0.6865
0.1 1.75 0.66725
0.15 1.75 0.6485
0.2 1.75 0.63025
0.25 1.75 0.6125
0.3 1.75 0.59525
0.35 1.75 0.5785
0.4 1.75 0.56225
0.45 1.75 0.5465
0.5 1.75 0.53125
0.55 1.75 0.5165
0.6 1.75 0.50225
0.65 1.75 0.4885
0.7 1.75 0.47525
0.75 1.75 0.4625
0.8 1.75 0.45025
0.85 1.75 0.4385
0.9 1.75 0.42725
0.95 1.75 0.4165
1 1.75 0.40625
1.05 1.75 0.3965
1.1 1.75 0.38725
1.15 1.75 0.3785
1.2 1.75 0.37025
1.25 1.75 0.3625
1.3 1.75 0.35525
1.35 1.75 0.3485
1.4 1.75 0.34225
1.45 1.75 0.3365
1.5 1.75 0.33125
1.55 1.75 0.3265
1.6 1.75 0.32225
1.65 1.75 0.3185
1.7 1.75 0.31525
1.75 1.75 0.3125
1.8 1.75 0.31025
1.85 1.75 0.3085
1.9 1.75 0.30725
1.95 1.75 0.3065
2 1.75 0.30625
2.05 1.75 0.3065
2.1 1.75 0.30725
2.15 1.75 0.3085
2.2 1.75 0.31025
2.25 1.75 0.3125
2.3 1.75 0.31525
2.35 1.75 0.3185
2.4 1.75 0.32225
2.45 1.75 0.3265
2.5 1.75 0.33125
2.55 1.75 0.3365
2.6 1.75 0.34225
2.65 1.75 0.3485
2.7 1.75 0.35525
2.75 1.75 0.3625
2.8 1.75 0.37025
2.85 1.75 0.3785
2.9 1.75 0.38725
2.95 1.75 0.3965
3 1.75 0.40625
3.05 1.75 0.4165
3.1 1.75 0.42725
3.15 1.75 0.4385
3.2 1.75 0.45025
3.25 1.75 0.4625
3.3 1.75 0.47525
3.35 1.75 0.4885
3.4 1.75 0.50225
3.45 1.75 0.5165
3.5 1.75 0.53125
3.55 1.75 0.5465
3.6 1.75 0.56225
3.65 1.75 0.5785
3.7 1.75 0.59525
3.75 1.75 0.6125
3.8 1.75 0.63025
3.85 1.75 0.6485
3.9 1.75 0.66725
3.95 1.75 0.6865
4 1.75 0.70625
0 1.8 0.724
0.05 1.8 0.70425
0.1 1.8 0.685
0.15 1.8 0.66625
0.2 1.8 0.648
0.25 1.8 0.63025
0.3 1.8 0.613
0.35 1.8 0.59625
0.4 1.8 0.58
0.45 1.8 0.56425
0.5 1.8 0.549
0.55 1.8 0.53425
0.6 1.8 0.52
0.65 1.8 0.50625
0.7 1.8 0.493
0.75 1.8 0.48025
0.8 1.8 0.468
0.85 1.8 0.45625
0.9 1.8 0.445
0.95 1.8 0.43425
1 1.8 0.424
1.05 1.8 0.41425
1.1 1.8 0.405
1.15 1.8 0.39625
1.2 1.8 0.388
1.25 1.8 0.38025
1.3 1.8 0.373
1.35 1.8 0.36625
1.4 1.8 0.36
1.45 1.8 0.35425
1.5 1.8 0.349
1.55 1.8 0.34425
1.6 1.8 0.34
1.65 1.8 0.33625
1.7 1.8 0.333
1.75 1.8 0.33025
1.8 1.8 0.328
1.85 1.8 0.32625
1.9 1.8 0.325
1.95 1.8 0.32425
2 1.8 0.324
2.05 1.8 0.32425
2.1 1.8 0.325
2.15 1.8 0.32625
2.2 1.8 0.328
2.25 1.8 0.33025
2.3 1.8 0.333
2.35 1.8 0.33625
2.4 1.8 0.34
2.45 1.8 0.34425
2.5 1.8 0.349
2.55 1.8 0.35425
2.6 1.8 0.36
2.65 1.8 0.36625
2.7 1.8 0.373
2.75 1.8 0.38025
2.8 1.8 0.388
2.85 1.8 0.39625
2.9 1.8 0.405
2.95 1.8 0.41425
3 1.8 0.424
3.05 1.8 0.43425
3.1 1.8 0.445
3.15 1.8 0.45625
3.2 1.8 0.468
3.25 1.8 0.48025
3.3 1.8 0.493
3.35 1.8 0.50625
3.4 1.8 0.52
3.45 1.8 0.53425
3.5 1.8 0.549
3.55 1.8 0.56425
3.6 1.8 0.58
3.65 1.8 0.59625
3.7 1.8 0.613
3.75 1.8 0.63025
3.8 1.8 0.648
3.85 1.8 0.66625
3.9 1.8 0.685
3.95 1.8 0.70425
4 1.8 0.724
0 1.85 0.74225
0.05 1.85 0.7225
0.1 1.85 0.70325
0.15 1.85 0.6845
0.2 1.85 0.66625
0.25 1.85 0.6485
0.3 1.85 0.63125
0.35 1.85 0.6145
0.4 1.85 0.59825
0.45 1.85 0.5825
0.5 1.85 0.56725
0.55 1.85 0.5525
0.6 1.85 0.53825
0.65 1.85 0.5245
0.7 1.85 0.51125
0.75 1.85 0.4985
0.8 1.85 0.48625
0.85 1.85 0.4745
0.9 1.85 0.46325
0.95 1.85 0.4525
1 1.85 0.44225
1.05 1.85 0.4325
1.1 1.85 0.42325
1.15 1.85 0.4145
1.2 1.85 0.40625
1.25 1.85 0.3985
1.3 1.85 0.39125
1.35 1.85 0.3845
1.4 1.85 0.37825
1.45 1.85 0.3725
1.5 1.85 0.36725
1.55 1.85 0.3625
1.6 1.85 0.35825
1.65 1.85 0.3545
1.7 1.85 0.35125
1.75 1.85 0.3485
1.8 1.85 0.34625
1.85 1.85 0.3445
1.9 1.85 0.34325
1.95 1.85 0.3425
2 1.85 0.34225
2.05 1.85 0.3425
2.1 1.85 0.34325
2.15 1.85 0.3445
2.2 1.85 0.34625
2.25 1.85 0.3485
2.3 1.85 0.35125
2.35 1.85 0.3545
2.4 1.85 0.35825
2.45 1.85 0.3625
2.5 1.85 0.36725
2.55 1.85 0.3725
2.6 1.85 0.37825
2.65 1.85 0.3845
2.7 1.85 0.39125
2.75 1.85 0.3985
2.8 1.85 0.40625
2.85 1.85 0.4145
2.9 1.85 0.42325
2.95 1.85 0.4325
3 1.85 0.44225
3.05 1.85 0.4525
3.1 1.85 0.46325
3.15 1.85 0.4745
3.2 1.85 0.48625
3.25 1.85 0.4985
3.3 1.85 0.51125
3.35 1.85 0.5245
3.4 1.85 0.53825
3.45 1.85 0.5525
3.5 1.85 0.56725
3.55 1.85 0.5825
3.6 1.85 0.59825
3.65 1.85 0.6145
3.7 1.85 0.63125
3.75 1.85 0.6485
3.8 1.85 0.66625
3.85 1.85 0.6845
3.9 1.85 0.70325
3.95 1.85 0.7225
4 1.85 0.74225
0 1.9 0.761
0.05 1.9 0.74125
0.1 1.9 0.722
0.15 1.9 0.70325
0.2 1.9 0.685
0.25 1.9 0.66725
0.3 1.9 0.65
0.35 1.9 0.63325
0.4 1.9 0.617
0.45 1.9 0.60125
0.5 1.9 0.586
0.55 1.9 0.57125
0.6 1.9 0.557
0.65 1.9 0.54325
0.7 1.9 0.53
0.75 1.9 0.51725
0.8 1.9 0.505
0.85 1.9 0.49325
0.9 1.9 0.482
0.95 1.9 0.47125
1 1.9 0.461
1.05 1.9 0.45125
1.1 1.9 0.442
1.15 1.9 0.43325
1.2 1.9 0.425
1.25 1.9 0.41725
1.3 1.9 0.41
1.35 1.9 0.40325
1.4 1.9 0.397
1.45 1.9 0.39125
1.5 1.9 0.386
1.55 1.9 0.38125
1.6 1.9 0.377
1.65 1.9 0.37325
1.7 1.9 0.37
1.75 1.9 0.36725
1.8 1.9 0.365
1.85 1.9 0.36325
1.9 1.9 0.362
1.95 1.9 0.36125
2 1.9 0.361
2.05 1.9 0.36125
2.1 1.9 0.362
2.15 1.9 0.36325
2.2 1.9 0.365
2.25 1.9 0.36725
2.3 1.9 0.37
2.35 1.9 0.37325
2.4 1.9 0.377
2.45 1.9 0.38125
2.5 1.9 0.386
2.55 1.9 0.39125
2.6 1.9 0.397
2.65 1.9 0.40325
2.7 1.9 0.41
2.75 1.9 0.41725
2.8 1.9 0.425
2.85 1.9 0.43325
2.9 1.9 0.442
2.95 1.9 0.45125
3 1.9 0.461
3.05 1.9 0.47125
3.1 1.9 0.482
3.15 1.9 0.49325
3.2 1.9 0.505
3.25 1.9 0.51725
3.3 1.9 0.53
3.35 1.9 0.54325
3.4 1.9 0.557
3.45 1.9 0.57125
3.5 1.9 0.586
3.55 1.9 0.60125
3.6 1.9 0.617
3.65 1.9 0.63325
3.7 1.9 0.65
3.75 1.9 0.66725
3.8 1.9 0.685
3.85 1.9 0.70325
3.9 1.9 0.722
3.95 1.9 0.74125
4 1.9 0.761
0 1.95 0.78025
0.05 1.95 0.7605
0.1 1.95 0.74125
0.15 1.95 0.7225
0.2 1.95 0.70425
0.25 1.95 0.6865
0.3 1.95 0.66925
0.35 1.95 0.6525
0.4 1.95 0.63625
0.45 1.95 0.6205
0.5 1.95 0.60525
0.55 1.95 0.5905
0.6 1.95 0.57625
0.65 1.95 0.5625
0.7 1.95 0.54925
0.75 1.95 0.5365
0.8 1.95 0.52425
0.85 1.95 0.5125
0.9 1.95 0.50125
0.95 1.95 0.4905
1 1.95 0.48025
1.05 1.95 0.4705
1.1 1.95 0.46125
1.15 1.95 0.4525
1.2 1.95 0.44425
1.25 1.95 0.4365
1.3 1.95 0.42925
1.35 1.95 0.4225
1.4 1.95 0.41625
1.45 1.95 0.4105
1.5 1.95 0.40525
1.55 1.95 0.4005
1.6 1.95 0.39625
1.65 1.95 0.3925
1.7 1.95 0.38925
1.75 1.95 0.3865
1.8 1.95 0.38425
1.85 1.95 0.3825
1.9 1.95 0.38125
1.95 1.95 0.3805
2 1.95 0.38025
2.05 1.95 0.3805
2.1 1.95 0.38125
2.15 1.95 0.3825
2.2 1.95 0.38425
2.25 1.95 0.3865
2.3 1.95 0.38925
2.35 1.95 0.3925
2.4 1.95 0.39625
2.45 1.95 0.4005
2.5 1.95 0.40525
2.55 1.95 0.4105
2.6 1.95 0.41625
2.65 1.95 0.4225
2.7 1.95 0.42925
2.75 1.95 0.4365
2.8 1.95 0.44425
2.85 1.95 0.4525
2.9 1.95 0.46125
2.95 1.95 0.4705
3 1.95 0.48025
3.05 1.95 0.4905
3.1 1.95 0.50125
3.15 1.95 0.5125
3.2 1.95 0.52425
3.25 1.95 0.5365
3.3 1.95 0.54925
3.35 1.95 0.5625
3.4 1.95 0.57625
3.45 1.95 0.5905
3.5 1.95 0.60525
3.55 1.95 0.6205
3.6 1.95 0.63625
3.65 1.95 0.6525
3.7 1.95 0.66925
3.75 1.95 0.6865
3.8 1.95 0.70425
3.85 1.95 0.7225
3.9 1.95 0.74125
3.95 1.95 0.7605
4 1.95 0.78025
0 2 0.8
0.05 2 0.78025
0.1 2 0.761
0.15 2 0.74225
0.2 2 0.724
0.25 2 0.70625
0.3 2 0.689
0.35 2 0.67225
0.4 2 0.656
0.45 2 0.64025
0.5 2 0.625
0.55 2 0.61025
0.6 2 0.596
0.65 2 0.58225
0.7 2 0.569
0.75 2 0.55625
0.8 2 0.544
0.85 2 0.53225
0.9 2 0.521
0.95 2 0.51025
1 2 0.5
1.05 2 0.49025
1.1 2 0.481
1.15 2 0.47225
1.2 2 0.464
1.25 2 0.45625
1.3 2 0.449
1.35 2 0.44225
1.4 2 0.436
1.45 2 0.43025
1.5 2 0.425
1.55 2 0.42025
1.6 2 0.416
1.65 2 0.41225
1.7 2 0.409
1.75 2 0.40625
1.8 2 0.404
1.85 2 0.40225
1.9 2 0.401
1.95 2 0.40025
2 2 0.4
2.05 2 0.40025
2.1 2 0.401
2.15 2 0.40225
2.2 2 0.404
2.25 2 0.40625
2.3 2 0.409
2.35 2 0.41225
2.4 2 0.416
2.45 2 0.42025
2.5 2 0.425
2.55 2 0.43025
2.6 2 0.436
2.65 2 0.44225
2.7 2 0.449
2.75 2 0.45625
2.8 2 0.464
2.85 2 0.47225
2.9 2 0.481
2.95 2 0.49025
3 2 0.5
3.05 2 0.51025
3.1 2 0.521
3.15 2 0.53225
3.2 2 0.544
3.25 2 0.55625
3.3 2 0.569
3.35 2 0.58225
3.4 2 0.596
3.45 2 0.61025
3.5 2 0.625
3.55 2 0.64025
3.6 2 0.656
3.65 2 0.67225
3.7 2 0.689
3.75 2 0.70625
3.8 2 0.724
3.85 2 0.74225
3.9 2 0.761
3.95 2 0.78025
4 2 0.8

[2D_TRIANGLES]
;;V1 V2 V3 MANNINGS_N INIT_DEPTH
0 1 82 1e-08 0
0 82 81 1e-08 0
1 2 82 1e-08 0
2 83 82 1e-08 0
2 3 84 1e-08 0
2 84 83 1e-08 0
3 4 84 1e-08 0
4 85 84 1e-08 0
4 5 86 1e-08 0
4 86 85 1e-08 0
5 6 86 1e-08 0
6 87 86 1e-08 0
6 7 88 1e-08 0
6 88 87 1e-08 0
7 8 88 1e-08 0
8 89 88 1e-08 0
8 9 90 1e-08 0
8 90 89 1e-08 0
9 10 90 1e-08 0
10 91 90 1e-08 0
10 11 92 1e-08 0
10 92 91 1e-08 0
11 12 92 1e-08 0
12 93 92 1e-08 0
12 13 94 1e-08 0
12 94 93 1e-08 0
13 14 94 1e-08 0
14 95 94 1e-08 0
14 15 96 1e-08 0
14 96 95 1e-08 0
15 16 96 1e-08 0
16 97 96 1e-08 0
16 17 98 1e-08 0
16 98 97 1e-08 0
17 18 98 1e-08 0
18 99 98 1e-08 0
18 19 100 1e-08 0
18 100 99 1e-08 0
19 20 100 1e-08 0
20 101 100 1e-08 0
20 21 102 1e-08 0
20 102 101 1e-08 0
21 22 102 1e-08 0
22 103 102 1e-08 0
22 23 104 1e-08 0
22 104 103 1e-08 0
23 24 104 1e-08 0
24 105 104 1e-08 0
24 25 106 1e-08 0
24 106 105 1e-08 0
25 26 106 1e-08 0
26 107 106 1e-08 0
26 27 108 1e-08 0
26 108 107 1e-08 0
27 28 108 1e-08 0
28 109 108 1e-08 0
28 29 110 1e-08 0
28 110 109 1e-08 0
29 30 110 1e-08 0
30 111 110 1e-08 0
30 31 112 1e-08 0
30 112 111 1e-08 0
31 32 112 1e-08 0
32 113 112 1e-08 0
32 33 114 1e-08 0
32 114 113 1e-08 0
33 34 114 1e-08 0
34 115 114 1e-08 0
34 35 116 1e-08 0
34 116 115 1e-08 0
35 36 116 1e-08 0
36 117 116 1e-08 0
36 37 118 1e-08 0
36 118 117 1e-08 0
37 38 118 1e-08 0
38 119 118 1e-08 0
38 39 120 1e-08 0
38 120 119 1e-08 0
39 40 120 1e-08 0
40 121 120 1e-08 0
40 41 122 1e-08 0
40 122 121 1e-08 0
41 42 122 1e-08 0
42 123 122 1e-08 0
42 43 124 1e-08 0
42 124 123 1e-08 0
43 44 124 1e-08 0
44 125 124 1e-08 0
44 45 126 1e-08 0
44 126 125 1e-08 0
45 46 126 1e-08 0
46 127 126 1e-08 0
46 47 128 1e-08 0
46 128 127 1e-08 0
47 48 128 1e-08 0
48 129 128 1e-08 0
48 49 130 1e-08 0
48 130 129 1e-08 0
49 50 130 1e-08 0
50 131 130 1e-08 0
50 51 132 1e-08 0
50 132 131 1e-08 0
51 52 132 1e-08 0
52 133 132 1e-08 0
52 53 134 1e-08 0
52 134 133 1e-08 0
53 54 134 1e-08 0
54 135 134 1e-08 0
54 55 136 1e-08 0
54 136 135 1e-08 0
55 56 136 1e-08 0
56 137 136 1e-08 0
56 57 138 1e-08 0
56 138 137 1e-08 0
57 58 138 1e-08 0
58 139 138 1e-08 0
58 59 140 1e-08 0
58 140 139 1e-08 0
59 60 140 1e-08 0
60 141 140 1e-08 0
60 61 142 1e-08 0
60 142 141 1e-08 0
61 62 142 1e-08 0
62 143 142 1e-08 0
62 63 144 1e-08 0
62 144 143 1e-08 0
63 64 144 1e-08 0
64 145 144 1e-08 0
64 65 146 1e-08 0
64 146 145 1e-08 0
65 66 146 1e-08 0
66 147 146 1e-08 0
66 67 148 1e-08 0
66 148 147 1e-08 0
67 68 148 1e-08 0
68 149 148 1e-08 0
68 69 150 1e-08 0
68 150 149 1e-08 0
69 70 150 1e-08 0
70 151 150 1e-08 0
70 71 152 1e-08 0
70 152 151 1e-08 0
71 72 152 1e-08 0
72 153 152 1e-08 0
72 73 154 1e-08 0
72 154 153 1e-08 0
73 74 154 1e-08 0
74 155 154 1e-08 0
74 75 156 1e-08 0
74 156 155 1e-08 0
75 76 156 1e-08 0
76 157 156 1e-08 0
76 77 158 1e-08 0
76 158 157 1e-08 0
77 78 158 1e-08 0
78 159 158 1e-08 0
78 79 160 1e-08 0
78 160 159 1e-08 0
79 80 160 1e-08 0
80 161 160 1e-08 0
81 82 162 1e-08 0
82 163 162 1e-08 0
82 83 164 1e-08 0
82 164 163 1e-08 0
83 84 164 1e-08 0
84 165 164 1e-08 0
84 85 166 1e-08 0
84 166 165 1e-08 0
85 86 166 1e-08 0
86 167 166 1e-08 0
86 87 168 1e-08 0
86 168 167 1e-08 0
87 88 168 1e-08 0
88 169 168 1e-08 0
88 89 170 1e-08 0
88 170 169 1e-08 0
89 90 170 1e-08 0
90 171 170 1e-08 0
90 91 172 1e-08 0
90 172 171 1e-08 0
91 92 172 1e-08 0
92 173 172 1e-08 0
92 93 174 1e-08 0
92 174 173 1e-08 0
93 94 174 1e-08 0
94 175 174 1e-08 0
94 95 176 1e-08 0
94 176 175 1e-08 0
95 96 176 1e-08 0
96 177 176 1e-08 0
96 97 178 1e-08 0
96 178 177 1e-08 0
97 98 178 1e-08 0
98 179 178 1e-08 0
98 99 180 1e-08 0
98 180 179 1e-08 0
99 100 180 1e-08 0
100 181 180 1e-08 0
100 101 182 1e-08 0
100 182 181 1e-08 0
101 102 182 1e-08 0
102 183 182 1e-08 0
102 103 184 1e-08 0
102 184 183 1e-08 0
103 104 184 1e-08 0
104 185 184 1e-08 0
104 105 186 1e-08 0
104 186 185 1e-08 0
105 106 186 1e-08 0
106 187 186 1e-08 0
106 107 188 1e-08 0
106 188 187 1e-08 0
107 108 188 1e-08 0
108 189 188 1e-08 0
108 109 190 1e-08 0
108 190 189 1e-08 0
109 110 190 1e-08 0
110 191 190 1e-08 0
110 111 192 1e-08 0
110 192 191 1e-08 0
111 112 192 1e-08 0
112 193 192 1e-08 0
112 113 194 1e-08 0
112 194 193 1e-08 0
113 114 194 1e-08 0
114 195 194 1e-08 0
114 115 196 1e-08 0
114 196 195 1e-08 0
115 116 196 1e-08 0
116 197 196 1e-08 0
116 117 198 1e-08 0
116 198 197 1e-08 0
117 118 198 1e-08 0
118 199 198 1e-08 0
118 119 200 1e-08 0
118 200 199 1e-08 0
119 120 200 1e-08 0
120 201 200 1e-08 0
120 121 202 1e-08 0
120 202 201 1e-08 0
121 122 202 1e-08 0
122 203 202 1e-08 0
122 123 204 1e-08 0
122 204 203 1e-08 0
123 124 204 1e-08 0
124 205 204 1e-08 0
124 125 206 1e-08 0
124 206 205 1e-08 0
125 126 206 1e-08 0
126 207 206 1e-08 0
126 127 208 1e-08 0
126 208 207 1e-08 0
127 128 208 1e-08 0
128 209 208 1e-08 0
128 129 210 1e-08 0
128 210 209 1e-08 0
129 130 210 1e-08 0
130 211 210 1e-08 0
130 131 212 1e-08 0
130 212 211 1e-08 0
131 132 212 1e-08 0
132 213 212 1e-08 0
132 133 214 1e-08 0
132 214 213 1e-08 0
133 134 214 1e-08 0
134 215 214 1e-08 0
134 135 216 1e-08 0
134 216 215 1e-08 0
135 136 216 1e-08 0
136 217 216 1e-08 0
136 137 218 1e-08 0
136 218 217 1e-08 0
137 138 218 1e-08 0
138 219 218 1e-08 0
138 139 220 1e-08 0
138 220 219 1e-08 0
139 140 220 1e-08 0
140 221 220 1e-08 0
140 141 222 1e-08 0
140 222 221 1e-08 0
141 142 222 1e-08 0
142 223 222 1e-08 0
142 143 224 1e-08 0
142 224 223 1e-08 0
143 144 224 1e-08 0
144 225 224 1e-08 0
144 145 226 1e-08 0
144 226 225 1e-08 0
145 146 226 1e-08 0
146 227 226 1e-08 0
146 147 228 1e-08 0
146 228 227 1e-08 0
147 148 228 1e-08 0
148 229 228 1e-08 0
148 149 230 1e-08 0
148 230 229 1e-08 0
149 150 230 1e-08 0
150 231 230 1e-08 0
150 151 232 1e-08 0
150 232 231 1e-08 0
151 152 232 1e-08 0
152 233 232 1e-08 0
152 153 234 1e-08 0
152 234 233 1e-08 0
153 154 234 1e-08 0
154 235 234 1e-08 0
154 155 236 1e-08 0
154 236 235 1e-08 0
155 156 236 1e-08 0
156 237 236 1e-08 0
156 157 238 1e-08 0
156 238 237 1e-08 0
157 158 238 1e-08 0
158 239 238 1e-08 0
158 159 240 1e-08 0
158 240 239 1e-08 0
159 160 240 1e-08 0
160 241 240 1e-08 0
160 161 242 1e-08 0
160 242 241 1e-08 0
162 163 244 1e-08 0
162 244 243 1e-08 0
163 164 244 1e-08 0
164 245 244 1e-08 0
164 165 246 1e-08 0
164 246 245 1e-08 0
165 166 246 1e-08 0
166 247 246 1e-08 0
166 167 248 1e-08 0
166 248 247 1e-08 0
167 168 248 1e-08 0
168 249 248 1e-08 0
168 169 250 1e-08 0
168 250 249 1e-08 0
169 170 250 1e-08 0
170 251 250 1e-08 0
170 171 252 1e-08 0
170 252 251 1e-08 0
171 172 252 1e-08 0
172 253 252 1e-08 0
172 173 254 1e-08 0
172 254 253 1e-08 0
173 174 254 1e-08 0
174 255 254 1e-08 0
174 175 256 1e-08 0
174 256 255 1e-08 0
175 176 256 1e-08 0
176 257 256 1e-08 0
176 177 258 1e-08 0
176 258 257 1e-08 0
177 178 258 1e-08 0
178 259 258 1e-08 0
178 179 260 1e-08 0
178 260 259 1e-08 0
179 180 260 1e-08 0
180 261 260 1e-08 0
180 181 262 1e-08 0
180 262 261 1e-08 0
181 182 262 1e-08 0
182 263 262 1e-08 0
182 183 264 1e-08 0
182 264 263 1e-08 0
183 184 264 1e-08 0
184 265 264 1e-08 0
184 185 266 1e-08 0
184 266 265 1e-08 0
185 186 266 1e-08 0
186 267 266 1e-08 0
186 187 268 1e-08 0
186 268 267 1e-08 0
187 188 268 1e-08 0
188 269 268 1e-08 0
188 189 270 1e-08 0
188 270 269 1e-08 0
189 190 270 1e-08 0
190 271 270 1e-08 0
190 191 272 1e-08 0
190 272 271 1e-08 0
191 192 272 1e-08 0
192 273 272 1e-08 0
192 193 274 1e-08 0
192 274 273 1e-08 0
193 194 274 1e-08 0
194 275 274 1e-08 0
194 195 276 1e-08 0
194 276 275 1e-08 0
195 196 276 1e-08 0
196 277 276 1e-08 0
196 197 278 1e-08 0
196 278 277 1e-08 0
197 198 278 1e-08 0
198 279 278 1e-08 0
198 199 280 1e-08 0
198 280 279 1e-08 0
199 200 280 1e-08 0
200 281 280 1e-08 0
200 201 282 1e-08 0
200 282 281 1e-08 0
201 202 282 1e-08 0
202 283 282 1e-08 0
202 203 284 1e-08 0
202 284 283 1e-08 0
203 204 284 1e-08 0
204 285 284 1e-08 0
204 205 286 1e-08 0
204 286 285 1e-08 0
205 206 286 1e-08 0
206 287 286 1e-08 0
206 207 288 1e-08 0
206 288 287 1e-08 0
207 208 288 1e-08 0
208 289 288 1e-08 0
208 209 290 1e-08 0
208 290 289 1e-08 0
209 210 290 1e-08 0
210 291 290 1e-08 0
210 211 292 1e-08 0
210 292 291 1e-08 0
211 212 292 1e-08 0
212 293 292 1e-08 0
212 213 294 1e-08 0
212 294 293 1e-08 0
213 214 294 1e-08 0
214 295 294 1e-08 0
214 215 296 1e-08 0
214 296 295 1e-08 0
215 216 296 1e-08 0
216 297 296 1e-08 0
216 217 298 1e-08 0
216 298 297 1e-08 0
217 218 298 1e-08 0
218 299 298 1e-08 0
218 219 300 1e-08 0
218 300 299 1e-08 0
219 220 300 1e-08 0
220 301 300 1e-08 0
220 221 302 1e-08 0
220 302 301 1e-08 0
221 222 302 1e-08 0
222 303 302 1e-08 0
222 223 304 1e-08 0
222 304 303 1e-08 0
223 224 304 1e-08 0
224 305 304 1e-08 0
224 225 306 1e-08 0
224 306 305 1e-08 0
225 226 306 1e-08 0
226 307 306 1e-08 0
226 227 308 1e-08 0
226 308 307 1e-08 0
227 228 308 1e-08 0
228 309 308 1e-08 0
228 229 310 1e-08 0
228 310 309 1e-08 0
229 230 310 1e-08 0
230 311 310 1e-08 0
230 231 312 1e-08 0
230 312 311 1e-08 0
231 232 312 1e-08 0
232 313 312 1e-08 0
232 233 314 1e-08 0
232 314 313 1e-08 0
233 234 314 1e-08 0
234 315 314 1e-08 0
234 235 316 1e-08 0
234 316 315 1e-08 0
235 236 316 1e-08 0
236 317 316 1e-08 0
236 237 318 1e-08 0
236 318 317 1e-08 0
237 238 318 1e-08 0
238 319 318 1e-08 0
238 239 320 1e-08 0
238 320 319 1e-08 0
239 240 320 1e-08 0
240 321 320 1e-08 0
240 241 322 1e-08 0
240 322 321 1e-08 0
241 242 322 1e-08 0
242 323 322 1e-08 0
243 244 324 1e-08 0
244 325 324 1e-08 0
244 245 326 1e-08 0
244 326 325 1e-08 0
245 246 326 1e-08 0
246 327 326 1e-08 0
246 247 328 1e-08 0
246 328 327 1e-08 0
247 248 328 1e-08 0
248 329 328 1e-08 0
248 249 330 1e-08 0
248 330 329 1e-08 0
249 250 330 1e-08 0
250 331 330 1e-08 0
250 251 332 1e-08 0
250 332 331 1e-08 0
251 252 332 1e-08 0
252 333 332 1e-08 0
252 253 334 1e-08 0
252 334 333 1e-08 0
253 254 334 1e-08 0
254 335 334 1e-08 0
254 255 336 1e-08 0
254 336 335 1e-08 0
255 256 336 1e-08 0
256 337 336 1e-08 0
256 257 338 1e-08 0
256 338 337 1e-08 0
257 258 338 1e-08 0
258 339 338 1e-08 0
258 259 340 1e-08 0
258 340 339 1e-08 0
259 260 340 1e-08 0
260 341 340 1e-08 0
260 261 342 1e-08 0
260 342 341 1e-08 0
261 262 342 1e-08 0
262 343 342 1e-08 0
262 263 344 1e-08 0
262 344 343 1e-08 0
263 264 344 1e-08 0
264 345 344 1e-08 0
264 265 346 1e-08 0
264 346 345 1e-08 0
265 266 346 1e-08 0
266 347 346 1e-08 0
266 267 348 1e-08 0
266 348 347 1e-08 0
267 268 348 1e-08 0
268 349 348 1e-08 0
268 269 350 1e-08 0
268 350 349 1e-08 0
269 270 350 1e-08 0
270 351 350 1e-08 0
270 271 352 1e-08 0
270 352 351 1e-08 0
271 272 352 1e-08 0
272 353 352 1e-08 0
272 273 354 1e-08 0
272 354 353 1e-08 0
273 274 354 1e-08 0
274 355 354 1e-08 0
274 275 356 1e-08 0
274 356 355 1e-08 0
275 276 356 1e-08 0
276 357 356 1e-08 0
276 277 358 1e-08 0
276 358 357 1e-08 0
277 278 358 1e-08 0
278 359 358 1e-08 0
278 279 360 1e-08 0
278 360 359 1e-08 0
279 280 360 1e-08 0
280 361 360 1e-08 0
280 281 362 1e-08 0
280 362 361 1e-08 0
281 282 362 1e-08 0
282 363 362 1e-08 0
282 283 364 1e-08 0
282 364 363 1e-08 0
283 284 364 1e-08 0
284 365 364 1e-08 0
284 285 366 1e-08 0
284 366 365 1e-08 0
285 286 366 1e-08 0
286 367 366 1e-08 0
286 287 368 1e-08 0
286 368 367 1e-08 0
287 288 368 1e-08 0
288 369 368 1e-08 0
288 289 370 1e-08 0
288 370 369 1e-08 0
289 290 370 1e-08 0
290 371 370 1e-08 0
290 291 372 1e-08 0
290 372 371 1e-08 0
291 292 372 1e-08 0
292 373 372 1e-08 0
292 293 374 1e-08 0
292 374 373 1e-08 0
293 294 374 1e-08 0
294 375 374 1e-08 0
294 295 376 1e-08 0
294 376 375 1e-08 0
295 296 376 1e-08 0
296 377 376 1e-08 0
296 297 378 1e-08 0
296 378 377 1e-08 0
297 298 378 1e-08 0
298 379 378 1e-08 0
298 299 380 1e-08 0
298 380 379 1e-08 0
299 300 380 1e-08 0
300 381 380 1e-08 0
300 301 382 1e-08 0
300 382 381 1e-08 0
301 302 382 1e-08 0
302 383 382 1e-08 0
302 303 384 1e-08 0
302 384 383 1e-08 0
303 304 384 1e-08 0
304 385 384 1e-08 0
304 305 386 1e-08 0
304 386 385 1e-08 0
305 306 386 1e-08 0
306 387 386 1e-08 0
306 307 388 1e-08 0
306 388 387 1e-08 0
307 308 388 1e-08 0
308 389 388 1e-08 0
308 309 390 1e-08 0
308 390 389 1e-08 0
309 310 390 1e-08 0
310 391 390 1e-08 0
310 311 392 1e-08 0
310 392 391 1e-08 0
311 312 392 1e-08 0
312 393 392 1e-08 0
312 313 394 1e-08 0
312 394 393 1e-08 0
313 314 394 1e-08 0
314 395 394 1e-08 0
314 315 396 1e-08 0
314 396 395 1e-08 0
315 316 396 1e-08 0
316 397 396 1e-08 0
316 317 398 1e-08 0
316 398 397 1e-08 0
317 318 398 1e-08 0
318 399 398 1e-08 0
318 319 400 1e-08 0
318 400 399 1e-08 0
319 320 400 1e-08 0
320 401 400 1e-08 0
320 321 402 1e-08 0
320 402 401 1e-08 0
321 322 402 1e-08 0
322 403 402 1e-08 0
322 323 404 1e-08 0
322 404 403 1e-08 0
324 325 406 1e-08 0
324 406 405 1e-08 0
325 326 406 1e-08 0
326 407 406 1e-08 0
326 327 408 1e-08 0
326 408 407 1e-08 0
327 328 408 1e-08 0
328 409 408 1e-08 0
328 329 410 1e-08 0
328 410 409 1e-08 0
329 330 410 1e-08 0
330 411 410 1e-08 0
330 331 412 1e-08 0
330 412 411 1e-08 0
331 332 412 1e-08 0
332 413 412 1e-08 0
332 333 414 1e-08 0
332 414 413 1e-08 0
333 334 414 1e-08 0
334 415 414 1e-08 0
334 335 416 1e-08 0
334 416 415 1e-08 0
335 336 416 1e-08 0
336 417 416 1e-08 0
336 337 418 1e-08 0
336 418 417 1e-08 0
337 338 418 1e-08 0
338 419 418 1e-08 0
338 339 420 1e-08 0
338 420 419 1e-08 0
339 340 420 1e-08 0
340 421 420 1e-08 0
340 341 422 1e-08 0
340 422 421 1e-08 0
341 342 422 1e-08 0
342 423 422 1e-08 0
342 343 424 1e-08 0
342 424 423 1e-08 0
343 344 424 1e-08 0
344 425 424 1e-08 0
344 345 426 1e-08 0
344 426 425 1e-08 0
345 346 426 1e-08 0
346 427 426 1e-08 0
346 347 428 1e-08 0
346 428 427 1e-08 0
347 348 428 1e-08 0
348 429 428 1e-08 0
348 349 430 1e-08 0
348 430 429 1e-08 0
349 350 430 1e-08 0
350 431 430 1e-08 0
350 351 432 1e-08 0
350 432 431 1e-08 0
351 352 432 1e-08 0
352 433 432 1e-08 0
352 353 434 1e-08 0
352 434 433 1e-08 0
353 354 434 1e-08 0
354 435 434 1e-08 0
354 355 436 1e-08 0
354 436 435 1e-08 0
355 356 436 1e-08 0
356 437 436 1e-08 0
356 357 438 1e-08 0
356 438 437 1e-08 0
357 358 438 1e-08 0
358 439 438 1e-08 0
358 359 440 1e-08 0
358 440 439 1e-08 0
359 360 440 1e-08 0
360 441 440 1e-08 0
360 361 442 1e-08 0
360 442 441 1e-08 0
361 362 442 1e-08 0
362 443 442 1e-08 0
362 363 444 1e-08 0
362 444 443 1e-08 0
363 364 444 1e-08 0
364 445 444 1e-08 0
364 365 446 1e-08 0
364 446 445 1e-08 0
365 366 446 1e-08 0
366 447 446 1e-08 0
366 367 448 1e-08 0
366 448 447 1e-08 0
367 368 448 1e-08 0
368 449 448 1e-08 0
368 369 450 1e-08 0
368 450 449 1e-08 0
369 370 450 1e-08 0
370 451 450 1e-08 0
370 371 452 1e-08 0
370 452 451 1e-08 0
371 372 452 1e-08 0
372 453 452 1e-08 0
372 373 454 1e-08 0
372 454 453 1e-08 0
373 374 454 1e-08 0
374 455 454 1e-08 0
374 375 456 1e-08 0
374 456 455 1e-08 0
375 376 456 1e-08 0
376 457 456 1e-08 0
376 377 458 1e-08 0
376 458 457 1e-08 0
377 378 458 1e-08 0
378 459 458 1e-08 0
378 379 460 1e-08 0
378 460 459 1e-08 0
379 380 460 1e-08 0
380 461 460 1e-08 0
380 381 462 1e-08 0
380 462 461 1e-08 0
381 382 462 1e-08 0
382 463 462 1e-08 0
382 383 464 1e-08 0
382 464 463 1e-08 0
383 384 464 1e-08 0
384 465 464 1e-08 0
384 385 466 1e-08 0
384 466 465 1e-08 0
385 386 466 1e-08 0
386 467 466 1e-08 0
386 387 468 1e-08 0
386 468 467 1e-08 0
387 388 468 1e-08 0
388 469 468 1e-08 0
388 389 470 1e-08 0
388 470 469 1e-08 0
389 390 470 1e-08 0
390 471 470 1e-08 0
390 391 472 1e-08 0
390 472 471 1e-08 0
391 392 472 1e-08 0
392 473 472 1e-08 0
392 393 474 1e-08 0
392 474 473 1e-08 0
393 394 474 1e-08 0
394 475 474 1e-08 0
394 395 476 1e-08 0
394 476 475 1e-08 0
395 396 476 1e-08 0
396 477 476 1e-08 0
396 397 478 1e-08 0
396 478 477 1e-08 0
397 398 478 1e-08 0
398 479 478 1e-08 0
398 399 480 1e-08 0
398 480 479 1e-08 0
399 400 480 1e-08 0
400 481 480 1e-08 0
400 401 482 1e-08 0
400 482 481 1e-08 0
401 402 482 1e-08 0
402 483 482 1e-08 0
402 403 484 1e-08 0
402 484 483 1e-08 0
403 404 484 1e-08 0
404 485 484 1e-08 0
405 406 486 1e-08 0
406 487 486 1e-08 0
406 407 488 1e-08 0
406 488 487 1e-08 0
407 408 488 1e-08 0
408 489 488 1e-08 0
408 409 490 1e-08 0
408 490 489 1e-08 0
409 410 490 1e-08 0
410 491 490 1e-08 0
410 411 492 1e-08 0
410 492 491 1e-08 0
411 412 492 1e-08 0
412 493 492 1e-08 0
412 413 494 1e-08 0
412 494 493 1e-08 0
413 414 494 1e-08 0
414 495 494 1e-08 0
414 415 496 1e-08 0
414 496 495 1e-08 0
415 416 496 1e-08 0
416 497 496 1e-08 0
416 417 498 1e-08 0
416 498 497 1e-08 0
417 418 498 1e-08 0
418 499 498 1e-08 0
418 419 500 1e-08 0
418 500 499 1e-08 0
419 420 500 1e-08 0
420 501 500 1e-08 0
420 421 502 1e-08 0
420 502 501 1e-08 0
421 422 502 1e-08 0
422 503 502 1e-08 0
422 423 504 1e-08 0
422 504 503 1e-08 0
423 424 504 1e-08 0
424 505 504 1e-08 0
424 425 506 1e-08 0
424 506 505 1e-08 0
425 426 506 1e-08 0
426 507 506 1e-08 0
426 427 508 1e-08 0
426 508 507 1e-08 0
427 428 508 1e-08 0
428 509 508 1e-08 0
428 429 510 1e-08 0
428 510 509 1e-08 0
429 430 510 1e-08 0
430 511 510 1e-08 0
430 431 512 1e-08 0
430 512 511 1e-08 0
431 432 512 1e-08 0
432 513 512 1e-08 0
432 433 514 1e-08 0
432 514 513 1e-08 0
433 434 514 1e-08 0
434 515 514 1e-08 0
434 435 516 1e-08 0
434 516 515 1e-08 0
435 436 516 1e-08 0
436 517 516 1e-08 0
436 437 518 1e-08 0
436 518 517 1e-08 0
437 438 518 1e-08 0
438 519 518 1e-08 0
438 439 520 1e-08 0
438 520 519 1e-08 0
439 440 520 1e-08 0
440 521 520 1e-08 0
440 441 522 1e-08 0
440 522 521 1e-08 0
441 442 522 1e-08 0
442 523 522 1e-08 0
442 443 524 1e-08 0
442 524 523 1e-08 0
443 444 524 1e-08 0
444 525 524 1e-08 0
444 445 526 1e-08 0
444 526 525 1e-08 0
445 446 526 1e-08 0
446 527 526 1e-08 0
446 447 528 1e-08 0
446 528 527 1e-08 0
447 448 528 1e-08 0
448 529 528 1e-08 0
448 449 530 1e-08 0
448 530 529 1e-08 0
449 450 530 1e-08 0
450 531 530 1e-08 0
450 451 532 1e-08 0
450 532 531 1e-08 0
451 452 532 1e-08 0
452 533 532 1e-08 0
452 453 534 1e-08 0
452 534 533 1e-08 0
453 454 534 1e-08 0
454 535 534 1e-08 0
454 455 536 1e-08 0
454 536 535 1e-08 0
455 456 536 1e-08 0
456 537 536 1e-08 0
456 457 538 1e-08 0
456 538 537 1e-08 0
457 458 538 1e-08 0
458 539 538 1e-08 0
458 459 540 1e-08 0
458 540 539 1e-08 0
459 460 540 1e-08 0
460 541 540 1e-08 0
460 461 542 1e-08 0
460 542 541 1e-08 0
461 462 542 1e-08 0
462 543 542 1e-08 0
462 463 544 1e-08 0
462 544 543 1e-08 0
463 464 544 1e-08 0
464 545 544 1e-08 0
464 465 546 1e-08 0
464 546 545 1e-08 0
465 466 546 1e-08 0
466 547 546 1e-08 0
466 467 548 1e-08 0
466 548 547 1e-08 0
467 468 548 1e-08 0
468 549 548 1e-08 0
468 469 550 1e-08 0
468 550 549 1e-08 0
469 470 550 1e-08 0
470 551 550 1e-08 0
470 471 552 1e-08 0
470 552 551 1e-08 0
471 472 552 1e-08 0
472 553 552 1e-08 0
472 473 554 1e-08 0
472 554 553 1e-08 0
473 474 554 1e-08 0
474 555 554 1e-08 0
474 475 556 1e-08 0
474 556 555 1e-08 0
475 476 556 1e-08 0
476 557 556 1e-08 0
476 477 558 1e-08 0
476 558 557 1e-08 0
477 478 558 1e-08 0
478 559 558 1e-08 0
478 479 560 1e-08 0
478 560 559 1e-08 0
479 480 560 1e-08 0
480 561 560 1e-08 0
480 481 562 1e-08 0
480 562 561 1e-08 0
481 482 562 1e-08 0
482 563 562 1e-08 0
482 483 564 1e-08 0
482 564 563 1e-08 0
483 484 564 1e-08 0
484 565 564 1e-08 0
484 485 566 1e-08 0
484 566 565 1e-08 0
486 487 568 1e-08 0
486 568 567 1e-08 0
487 488 568 1e-08 0
488 569 568 1e-08 0
488 489 570 1e-08 0
488 570 569 1e-08 0
489 490 570 1e-08 0
490 571 570 1e-08 0
490 491 572 1e-08 0
490 572 571 1e-08 0
491 492 572 1e-08 0
492 573 572 1e-08 0
492 493 574 1e-08 0
492 574 573 1e-08 0
493 494 574 1e-08 0
494 575 574 1e-08 0
494 495 576 1e-08 0
494 576 575 1e-08 0
495 496 576 1e-08 0
496 577 576 1e-08 0
496 497 578 1e-08 0
496 578 577 1e-08 0
497 498 578 1e-08 0
498 579 578 1e-08 0
498 499 580 1e-08 0
498 580 579 1e-08 0
499 500 580 1e-08 0
500 581 580 1e-08 0
500 501 582 1e-08 0
500 582 581 1e-08 0
501 502 582 1e-08 0
502 583 582 1e-08 0
502 503 584 1e-08 0
502 584 583 1e-08 0
503 504 584 1e-08 0
504 585 584 1e-08 0
504 505 586 1e-08 0
504 586 585 1e-08 0
505 506 586 1e-08 0
506 587 586 1e-08 0
506 507 588 1e-08 0
506 588 587 1e-08 0
507 508 588 1e-08 0
508 589 588 1e-08 0
508 509 590 1e-08 0
508 590 589 1e-08 0
509 510 590 1e-08 0
510 591 590 1e-08 0
510 511 592 1e-08 0
510 592 591 1e-08 0
511 512 592 1e-08 0
512 593 592 1e-08 0
512 513 594 1e-08 0
512 594 593 1e-08 0
513 514 594 1e-08 0
514 595 594 1e-08 0
514 515 596 1e-08 0
514 596 595 1e-08 0
515 516 596 1e-08 0
516 597 596 1e-08 0
516 517 598 1e-08 0
516 598 597 1e-08 0
517 518 598 1e-08 0
518 599 598 1e-08 0
518 519 600 1e-08 0
518 600 599 1e-08 0
519 520 600 1e-08 0
520 601 600 1e-08 0
520 521 602 1e-08 0
520 602 601 1e-08 0
521 522 602 1e-08 0
522 603 602 1e-08 0
522 523 604 1e-08 0
522 604 603 1e-08 0
523 524 604 1e-08 0
524 605 604 1e-08 0
524 525 606 1e-08 0
524 606 605 1e-08 0
525 526 606 1e-08 0
526 607 606 1e-08 0
526 527 608 1e-08 0
526 608 607 1e-08 0
527 528 608 1e-08 0
528 609 608 1e-08 0
528 529 610 1e-08 0
528 610 609 1e-08 0
529 530 610 1e-08 0
530 611 610 1e-08 0
530 531 612 1e-08 0
530 612 611 1e-08 0
531 532 612 1e-08 0
532 613 612 1e-08 0
532 533 614 1e-08 0
532 614 613 1e-08 0
533 534 614 1e-08 0
534 615 614 1e-08 0
534 535 616 1e-08 0
534 616 615 1e-08 0
535 536 616 1e-08 0
536 617 616 1e-08 0
536 537 618 1e-08 0
536 618 617 1e-08 0
537 538 618 1e-08 0
538 619 618 1e-08 0
538 539 620 1e-08 0
538 620 619 1e-08 0
539 540 620 1e-08 0
540 621 620 1e-08 0
540 541 622 1e-08 0
540 622 621 1e-08 0
541 542 622 1e-08 0
542 623 622 1e-08 0
542 543 624 1e-08 0
542 624 623 1e-08 0
543 544 624 1e-08 0
544 625 624 1e-08 0
544 545 626 1e-08 0
544 626 625 1e-08 0
545 546 626 1e-08 0
546 627 626 1e-08 0
546 547 628 1e-08 0
546 628 627 1e-08 0
547 548 628 1e-08 0
548 629 628 1e-08 0
548 549 630 1e-08 0
548 630 629 1e-08 0
549 550 630 1e-08 0
550 631 630 1e-08 0
550 551 632 1e-08 0
550 632 631 1e-08 0
551 552 632 1e-08 0
552 633 632 1e-08 0
552 553 634 1e-08 0
552 634 633 1e-08 0
553 554 634 1e-08 0
554 635 634 1e-08 0
554 555 636 1e-08 0
554 636 635 1e-08 0
555 556 636 1e-08 0
556 637 636 1e-08 0
556 557 638 1e-08 0
556 638 637 1e-08 0
557 558 638 1e-08 0
558 639 638 1e-08 0
558 559 640 1e-08 0
558 640 639 1e-08 0
559 560 640 1e-08 0
560 641 640 1e-08 0
560 561 642 1e-08 0
560 642 641 1e-08 0
561 562 642 1e-08 0
562 643 642 1e-08 0
562 563 644 1e-08 0
562 644 643 1e-08 0
563 564 644 1e-08 0
564 645 644 1e-08 0
564 565 646 1e-08 0
564 646 645 1e-08 0
565 566 646 1e-08 0
566 647 646 1e-08 0
567 568 648 1e-08 0
568 649 648 1e-08 0
568 569 650 1e-08 0
568 650 649 1e-08 0
569 570 650 1e-08 0
570 651 650 1e-08 0
570 571 652 1e-08 0
570 652 651 1e-08 0
571 572 652 1e-08 0
572 653 652 1e-08 0
572 573 654 1e-08 0
572 654 653 1e-08 0
573 574 654 1e-08 0
574 655 654 1e-08 0
574 575 656 1e-08 0
574 656 655 1e-08 0
575 576 656 1e-08 0
576 657 656 1e-08 0
576 577 658 1e-08 0
576 658 657 1e-08 0
577 578 658 1e-08 0
578 659 658 1e-08 0
578 579 660 1e-08 0
578 660 659 1e-08 0
579 580 660 1e-08 0
580 661 660 1e-08 0
580 581 662 1e-08 0
580 662 661 1e-08 0
581 582 662 1e-08 0
582 663 662 1e-08 0
582 583 664 1e-08 0
582 664 663 1e-08 0
583 584 664 1e-08 0
584 665 664 1e-08 0
584 585 666 1e-08 0
584 666 665 1e-08 0
585 586 666 1e-08 0
586 667 666 1e-08 0
586 587 668 1e-08 0
586 668 667 1e-08 0
587 588 668 1e-08 0
588 669 668 1e-08 0
588 589 670 1e-08 0
588 670 669 1e-08 0
589 590 670 1e-08 0
590 671 670 1e-08 0
590 591 672 1e-08 0
590 672 671 1e-08 0
591 592 672 1e-08 0
592 673 672 1e-08 0
592 593 674 1e-08 0
592 674 673 1e-08 0
593 594 674 1e-08 0
594 675 674 1e-08 0
594 595 676 1e-08 0
594 676 675 1e-08 0
595 596 676 1e-08 0
596 677 676 1e-08 0
596 597 678 1e-08 0
596 678 677 1e-08 0
597 598 678 1e-08 0
598 679 678 1e-08 0
598 599 680 1e-08 0
598 680 679 1e-08 0
599 600 680 1e-08 0
600 681 680 1e-08 0
600 601 682 1e-08 0
600 682 681 1e-08 0
601 602 682 1e-08 0
602 683 682 1e-08 0
602 603 684 1e-08 0
602 684 683 1e-08 0
603 604 684 1e-08 0
604 685 684 1e-08 0
604 605 686 1e-08 0
604 686 685 1e-08 0
605 606 686 1e-08 0
606 687 686 1e-08 0
606 607 688 1e-08 0
606 688 687 1e-08 0
607 608 688 1e-08 0
608 689 688 1e-08 0
608 609 690 1e-08 0
608 690 689 1e-08 0
609 610 690 1e-08 0
610 691 690 1e-08 0
610 611 692 1e-08 0
610 692 691 1e-08 0
611 612 692 1e-08 0
612 693 692 1e-08 0
612 613 694 1e-08 0
612 694 693 1e-08 0
613 614 694 1e-08 0
614 695 694 1e-08 0
614 615 696 1e-08 0
614 696 695 1e-08 0
615 616 696 1e-08 0
616 697 696 1e-08 0
616 617 698 1e-08 0
616 698 697 1e-08 0
617 618 698 1e-08 0
618 699 698 1e-08 0
618 619 700 1e-08 0
618 700 699 1e-08 0
619 620 700 1e-08 0
620 701 700 1e-08 0
620 621 702 1e-08 0
620 702 701 1e-08 0
621 622 702 1e-08 0
622 703 702 1e-08 0
622 623 704 1e-08 0
622 704 703 1e-08 0
623 624 704 1e-08 0
624 705 704 1e-08 0
624 625 706 1e-08 0
624 706 705 1e-08 0
625 626 706 1e-08 0
626 707 706 1e-08 0
626 627 708 1e-08 0
626 708 707 1e-08 0
627 628 708 1e-08 0
628 709 708 1e-08 0
628 629 710 1e-08 0
628 710 709 1e-08 0
629 630 710 1e-08 0
630 711 710 1e-08 0
630 631 712 1e-08 0
630 712 711 1e-08 0
631 632 712 1e-08 0
632 713 712 1e-08 0
632 633 714 1e-08 0
632 714 713 1e-08 0
633 634 714 1e-08 0
634 715 714 1e-08 0
634 635 716 1e-08 0
634 716 715 1e-08 0
635 636 716 1e-08 0
636 717 716 1e-08 0
636 637 718 1e-08 0
636 718 717 1e-08 0
637 638 718 1e-08 0
638 719 718 1e-08 0
638 639 720 1e-08 0
638 720 719 1e-08 0
639 640 720 1e-08 0
640 721 720 1e-08 0
640 641 722 1e-08 0
640 722 721 1e-08 0
641 642 722 1e-08 0
642 723 722 1e-08 0
642 643 724 1e-08 0
642 724 723 1e-08 0
643 644 724 1e-08 0
644 725 724 1e-08 0
644 645 726 1e-08 0
644 726 725 1e-08 0
645 646 726 1e-08 0
646 727 726 1e-08 0
646 647 728 1e-08 0
646 728 727 1e-08 0
648 649 730 1e-08 0
648 730 729 1e-08 0
649 650 730 1e-08 0
650 731 730 1e-08 0
650 651 732 1e-08 0
650 732 731 1e-08 0
651 652 732 1e-08 0
652 733 732 1e-08 0
652 653 734 1e-08 0
652 734 733 1e-08 0
653 654 734 1e-08 0
654 735 734 1e-08 0
654 655 736 1e-08 0
654 736 735 1e-08 0
655 656 736 1e-08 0
656 737 736 1e-08 0
656 657 738 1e-08 0
656 738 737 1e-08 0
657 658 738 1e-08 0
658 739 738 1e-08 0
658 659 740 1e-08 0
658 740 739 1e-08 0
659 660 740 1e-08 0
660 741 740 1e-08 0
660 661 742 1e-08 0
660 742 741 1e-08 0
661 662 742 1e-08 0
662 743 742 1e-08 0
662 663 744 1e-08 0
662 744 743 1e-08 0
663 664 744 1e-08 0
664 745 744 1e-08 0
664 665 746 1e-08 0
664 746 745 1e-08 0
665 666 746 1e-08 0
666 747 746 1e-08 0
666 667 748 1e-08 0
666 748 747 1e-08 0
667 668 748 1e-08 0
668 749 748 1e-08 0
668 669 750 1e-08 0
668 750 749 1e-08 0
669 670 750 1e-08 0
670 751 750 1e-08 0
670 671 752 1e-08 0
670 752 751 1e-08 0
671 672 752 1e-08 0
672 753 752 1e-08 0
672 673 754 1e-08 0
672 754 753 1e-08 0
673 674 754 1e-08 0
674 755 754 1e-08 0
674 675 756 1e-08 0
674 756 755 1e-08 0
675 676 756 1e-08 0
676 757 756 1e-08 0
676 677 758 1e-08 0
676 758 757 1e-08 0
677 678 758 1e-08 0
678 759 758 1e-08 0
678 679 760 1e-08 0
678 760 759 1e-08 0
679 680 760 1e-08 0
680 761 760 1e-08 0
680 681 762 1e-08 0
680 762 761 1e-08 0
681 682 762 1e-08 0
682 763 762 1e-08 0
682 683 764 1e-08 0
682 764 763 1e-08 0
683 684 764 1e-08 0
684 765 764 1e-08 0
684 685 766 1e-08 0
684 766 765 1e-08 0
685 686 766 1e-08 0
686 767 766 1e-08 0
686 687 768 1e-08 0
686 768 767 1e-08 0
687 688 768 1e-08 0
688 769 768 1e-08 0
688 689 770 1e-08 0
688 770 769 1e-08 0
689 690 770 1e-08 0
690 771 770 1e-08 0
690 691 772 1e-08 0
690 772 771 1e-08 0
691 692 772 1e-08 0
692 773 772 1e-08 0
692 693 774 1e-08 0
692 774 773 1e-08 0
693 694 774 1e-08 0
694 775 774 1e-08 0
694 695 776 1e-08 0
694 776 775 1e-08 0
695 696 776 1e-08 0
696 777 776 1e-08 0
696 697 778 1e-08 0
696 778 777 1e-08 0
697 698 778 1e-08 0
698 779 778 1e-08 0
698 699 780 1e-08 0
698 780 779 1e-08 0
699 700 780 1e-08 0
700 781 780 1e-08 0
700 701 782 1e-08 0
700 782 781 1e-08 0
701 702 782 1e-08 0
702 783 782 1e-08 0
702 703 784 1e-08 0
702 784 783 1e-08 0
703 704 784 1e-08 0
704 785 784 1e-08 0
704 705 786 1e-08 0
704 786 785 1e-08 0
705 706 786 1e-08 0
706 787 786 1e-08 0
706 707 788 1e-08 0
706 788 787 1e-08 0
707 708 788 1e-08 0
708 789 788 1e-08 0
708 709 790 1e-08 0
708 790 789 1e-08 0
709 710 790 1e-08 0
710 791 790 1e-08 0
710 711 792 1e-08 0
710 792 791 1e-08 0
711 712 792 1e-08 0
712 793 792 1e-08 0
712 713 794 1e-08 0
712 794 793 1e-08 0
713 714 794 1e-08 0
714 795 794 1e-08 0
714 715 796 1e-08 0
714 796 795 1e-08 0
715 716 796 1e-08 0
716 797 796 1e-08 0
716 717 798 1e-08 0
716 798 797 1e-08 0
717 718 798 1e-08 0
718 799 798 1e-08 0
718 719 800 1e-08 0
718 800 799 1e-08 0
719 720 800 1e-08 0
720 801 800 1e-08 0
720 721 802 1e-08 0
720 802 801 1e-08 0
721 722 802 1e-08 0
722 803 802 1e-08 0
722 723 804 1e-08 0
722 804 803 1e-08 0
723 724 804 1e-08 0
724 805 804 1e-08 0
724 725 806 1e-08 0
724 806 805 1e-08 0
725 726 806 1e-08 0
726 807 806 1e-08 0
726 727 808 1e-08 0
726 808 807 1e-08 0
727 728 808 1e-08 0
728 809 808 1e-08 0
729 730 810 1e-08 0
730 811 810 1e-08 0
730 731 812 1e-08 0
730 812 811 1e-08 0
731 732 812 1e-08 0
732 813 812 1e-08 0
732 733 814 1e-08 0
732 814 813 1e-08 0
733 734 814 1e-08 0
734 815 814 1e-08 0
734 735 816 1e-08 0
734 816 815 1e-08 0
735 736 816 1e-08 0
736 817 816 1e-08 0
736 737 818 1e-08 0
736 818 817 1e-08 0
737 738 818 1e-08 0
738 819 818 1e-08 0
738 739 820 1e-08 0
738 820 819 1e-08 0
739 740 820 1e-08 0
740 821 820 1e-08 0
740 741 822 1e-08 0
740 822 821 1e-08 0
741 742 822 1e-08 0
742 823 822 1e-08 0
742 743 824 1e-08 0
742 824 823 1e-08 0
743 744 824 1e-08 0
744 825 824 1e-08 0
744 745 826 1e-08 0
744 826 825 1e-08 0
745 746 826 1e-08 0
746 827 826 1e-08 0
746 747 828 1e-08 0
746 828 827 1e-08 0
747 748 828 1e-08 0
748 829 828 1e-08 0
748 749 830 1e-08 0
748 830 829 1e-08 0
749 750 830 1e-08 0
750 831 830 1e-08 0
750 751 832 1e-08 0
750 832 831 1e-08 0
751 752 832 1e-08 0
752 833 832 1e-08 0
752 753 834 1e-08 0
752 834 833 1e-08 0
753 754 834 1e-08 0
754 835 834 1e-08 0
754 755 836 1e-08 0
754 836 835 1e-08 0
755 756 836 1e-08 0
756 837 836 1e-08 0
756 757 838 1e-08 0
756 838 837 1e-08 0
757 758 838 1e-08 0
758 839 838 1e-08 0
758 759 840 1e-08 0
758 840 839 1e-08 0
759 760 840 1e-08 0
760 841 840 1e-08 0
760 761 842 1e-08 0
760 842 841 1e-08 0
761 762 842 1e-08 0
762 843 842 1e-08 0
762 763 844 1e-08 0
762 844 843 1e-08 0
763 764 844 1e-08 0
764 845 844 1e-08 0
764 765 846 1e-08 0
764 846 845 1e-08 0
765 766 846 1e-08 0
766 847 846 1e-08 0
766 767 848 1e-08 0
766 848 847 1e-08 0
767 768 848 1e-08 0
768 849 848 1e-08 0
768 769 850 1e-08 0
768 850 849 1e-08 0
769 770 850 1e-08 0
770 851 850 1e-08 0
770 771 852 1e-08 0
770 852 851 1e-08 0
771 772 852 1e-08 0
772 853 852 1e-08 0
772 773 854 1e-08 0
772 854 853 1e-08 0
773 774 854 1e-08 0
774 855 854 1e-08 0
774 775 856 1e-08 0
774 856 855 1e-08 0
775 776 856 1e-08 0
776 857 856 1e-08 0
776 777 858 1e-08 0
776 858 857 1e-08 0
777 778 858 1e-08 0
778 859 858 1e-08 0
778 779 860 1e-08 0
778 860 859 1e-08 0
779 780 860 1e-08 0
780 861 860 1e-08 0
780 781 862 1e-08 0
780 862 861 1e-08 0
781 782 862 1e-08 0
782 863 862 1e-08 0
782 783 864 1e-08 0
782 864 863 1e-08 0
783 784 864 1e-08 0
784 865 864 1e-08 0
784 785 866 1e-08 0
784 866 865 1e-08 0
785 786 866 1e-08 0
786 867 866 1e-08 0
786 787 868 1e-08 0
786 868 867 1e-08 0
787 788 868 1e-08 0
788 869 868 1e-08 0
788 789 870 1e-08 0
788 870 869 1e-08 0
789 790 870 1e-08 0
790 871 870 1e-08 0
790 791 872 1e-08 0
790 872 871 1e-08 0
791 792 872 1e-08 0
792 873 872 1e-08 0
792 793 874 1e-08 0
792 874 873 1e-08 0
793 794 874 1e-08 0
794 875 874 1e-08 0
794 795 876 1e-08 0
794 876 875 1e-08 0
795 796 876 1e-08 0
796 877 876 1e-08 0
796 797 878 1e-08 0
796 878 877 1e-08 0
797 798 878 1e-08 0
798 879 878 1e-08 0
798 799 880 1e-08 0
798 880 879 1e-08 0
799 800 880 1e-08 0
800 881 880 1e-08 0
800 801 882 1e-08 0
800 882 881 1e-08 0
801 802 882 1e-08 0
802 883 882 1e-08 0
802 803 884 1e-08 0
802 884 883 1e-08 0
803 804 884 1e-08 0
804 885 884 1e-08 0
804 805 886 1e-08 0
804 886 885 1e-08 0
805 806 886 1e-08 0
806 887 886 1e-08 0
806 807 888 1e-08 0
806 888 887 1e-08 0
807 808 888 1e-08 0
808 889 888 1e-08 0
808 809 890 1e-08 0
808 890 889 1e-08 0
810 811 892 1e-08 0
810 892 891 1e-08 0
811 812 892 1e-08 0
812 893 892 1e-08 0
812 813 894 1e-08 0
812 894 893 1e-08 0
813 814 894 1e-08 0
814 895 894 1e-08 0
814 815 896 1e-08 0
814 896 895 1e-08 0
815 816 896 1e-08 0
816 897 896 1e-08 0
816 817 898 1e-08 0
816 898 897 1e-08 0
817 818 898 1e-08 0
818 899 898 1e-08 0
818 819 900 1e-08 0
818 900 899 1e-08 0
819 820 900 1e-08 0
820 901 900 1e-08 0
820 821 902 1e-08 0
820 902 901 1e-08 0
821 822 902 1e-08 0
822 903 902 1e-08 0
822 823 904 1e-08 0
822 904 903 1e-08 0
823 824 904 1e-08 0
824 905 904 1e-08 0
824 825 906 1e-08 0
824 906 905 1e-08 0
825 826 906 1e-08 0
826 907 906 1e-08 0
826 827 908 1e-08 0
826 908 907 1e-08 0
827 828 908 1e-08 0
828 909 908 1e-08 0
828 829 910 1e-08 0
828 910 909 1e-08 0
829 830 910 1e-08 0
830 911 910 1e-08 0
830 831 912 1e-08 0
830 912 911 1e-08 0
831 832 912 1e-08 0
832 913 912 1e-08 0
832 833 914 1e-08 0
832 914 913 1e-08 0
833 834 914 1e-08 0
834 915 914 1e-08 0
834 835 916 1e-08 0
834 916 915 1e-08 0
835 836 916 1e-08 0
836 917 916 1e-08 0
836 837 918 1e-08 0
836 918 917 1e-08 0
837 838 918 1e-08 0
838 919 918 1e-08 0
838 839 920 1e-08 0
838 920 919 1e-08 0
839 840 920 1e-08 0
840 921 920 1e-08 0
840 841 922 1e-08 0
840 922 921 1e-08 0
841 842 922 1e-08 0
842 923 922 1e-08 0
842 843 924 1e-08 0
842 924 923 1e-08 0
843 844 924 1e-08 0
844 925 924 1e-08 0
844 845 926 1e-08 0
844 926 925 1e-08 0
845 846 926 1e-08 0
846 927 926 1e-08 0
846 847 928 1e-08 0
846 928 927 1e-08 0
847 848 928 1e-08 0
848 929 928 1e-08 0
848 849 930 1e-08 0
848 930 929 1e-08 0
849 850 930 1e-08 0
850 931 930 1e-08 0
850 851 932 1e-08 0
850 932 931 1e-08 0
851 852 932 1e-08 0
852 933 932 1e-08 0
852 853 934 1e-08 0
852 934 933 1e-08 0
853 854 934 1e-08 0
854 935 934 1e-08 0
854 855 936 1e-08 0
854 936 935 1e-08 0
855 856 936 1e-08 0
856 937 936 1e-08 0
856 857 938 1e-08 0
856 938 937 1e-08 0
857 858 938 1e-08 0
858 939 938 1e-08 0
858 859 940 1e-08 0
858 940 939 1e-08 0
859 860 940 1e-08 0
860 941 940 1e-08 0
860 861 942 1e-08 0
860 942 941 1e-08 0
861 862 942 1e-08 0
862 943 942 1e-08 0
862 863 944 1e-08 0
862 944 943 1e-08 0
863 864 944 1e-08 0
864 945 944 1e-08 0
864 865 946 1e-08 0
864 946 945 1e-08 0
865 866 946 1e-08 0
866 947 946 1e-08 0
866 867 948 1e-08 0
866 948 947 1e-08 0
867 868 948 1e-08 0
868 949 948 1e-08 0
868 869 950 1e-08 0
868 950 949 1e-08 0
869 870 950 1e-08 0
870 951 950 1e-08 0
870 871 952 1e-08 0
870 952 951 1e-08 0
871 872 952 1e-08 0
872 953 952 1e-08 0
872 873 954 1e-08 0
872 954 953 1e-08 0
873 874 954 1e-08 0
874 955 954 1e-08 0
874 875 956 1e-08 0
874 956 955 1e-08 0
875 876 956 1e-08 0
876 957 956 1e-08 0
876 877 958 1e-08 0
876 958 957 1e-08 0
877 878 958 1e-08 0
878 959 958 1e-08 0
878 879 960 1e-08 0
878 960 959 1e-08 0
879 880 960 1e-08 0
880 961 960 1e-08 0
880 881 962 1e-08 0
880 962 961 1e-08 0
881 882 962 1e-08 0
882 963 962 1e-08 0
882 883 964 1e-08 0
882 964 963 1e-08 0
883 884 964 1e-08 0
884 965 964 1e-08 0
884 885 966 1e-08 0
884 966 965 1e-08 0
885 886 966 1e-08 0
886 967 966 1e-08 0
886 887 968 1e-08 0
886 968 967 1e-08 0
887 888 968 1e-08 0
888 969 968 1e-08 0
888 889 970 1e-08 0
888 970 969 1e-08 0
889 890 970 1e-08 0
890 971 970 1e-08 0
891 892 972 1e-08 0
892 973 972 1e-08 0
892 893 974 1e-08 0
892 974 973 1e-08 0
893 894 974 1e-08 0
894 975 974 1e-08 0
894 895 976 1e-08 0
894 976 975 1e-08 0
895 896 976 1e-08 0
896 977 976 1e-08 0
896 897 978 1e-08 0
896 978 977 1e-08 0
897 898 978 1e-08 0
898 979 978 1e-08 0
898 899 980 1e-08 0
898 980 979 1e-08 0
899 900 980 1e-08 0
900 981 980 1e-08 0
900 901 982 1e-08 0
900 982 981 1e-08 0
901 902 982 1e-08 0
902 983 982 1e-08 0
902 903 984 1e-08 0
902 984 983 1e-08 0
903 904 984 1e-08 0
904 985 984 1e-08 0
904 905 986 1e-08 0
904 986 985 1e-08 0
905 906 986 1e-08 0
906 987 986 1e-08 0
906 907 988 1e-08 0
906 988 987 1e-08 0
907 908 988 1e-08 0
908 989 988 1e-08 0
908 909 990 1e-08 0
908 990 989 1e-08 0
909 910 990 1e-08 0
910 991 990 1e-08 0
910 911 992 1e-08 0
910 992 991 1e-08 0
911 912 992 1e-08 0
912 993 992 1e-08 0
912 913 994 1e-08 0
912 994 993 1e-08 0
913 914 994 1e-08 0
914 995 994 1e-08 0
914 915 996 1e-08 0
914 996 995 1e-08 0
915 916 996 1e-08 0
916 997 996 1e-08 0
916 917 998 1e-08 0
916 998 997 1e-08 0
917 918 998 1e-08 0
918 999 998 1e-08 0
918 919 1000 1e-08 0
918 1000 999 1e-08 0
919 920 1000 1e-08 0
920 1001 1000 1e-08 0
920 921 1002 1e-08 0
920 1002 1001 1e-08 0
921 922 1002 1e-08 0
922 1003 1002 1e-08 0
922 923 1004 1e-08 0
922 1004 1003 1e-08 0
923 924 1004 1e-08 0
924 1005 1004 1e-08 0
924 925 1006 1e-08 0
924 1006 1005 1e-08 0
925 926 1006 1e-08 0
926 1007 1006 1e-08 0
926 927 1008 1e-08 0
926 1008 1007 1e-08 0
927 928 1008 1e-08 0
928 1009 1008 1e-08 0
928 929 1010 1e-08 0
928 1010 1009 1e-08 0
929 930 1010 1e-08 0
930 1011 1010 1e-08 0
930 931 1012 1e-08 0
930 1012 1011 1e-08 0
931 932 1012 1e-08 0
932 1013 1012 1e-08 0
932 933 1014 1e-08 0
932 1014 1013 1e-08 0
933 934 1014 1e-08 0
934 1015 1014 1e-08 0
934 935 1016 1e-08 0
934 1016 1015 1e-08 0
935 936 1016 1e-08 0
936 1017 1016 1e-08 0
936 937 1018 1e-08 0
936 1018 1017 1e-08 0
937 938 1018 1e-08 0
938 1019 1018 1e-08 0
938 939 1020 1e-08 0
938 1020 1019 1e-08 0
939 940 1020 1e-08 0
940 1021 1020 1e-08 0
940 941 1022 1e-08 0
940 1022 1021 1e-08 0
941 942 1022 1e-08 0
942 1023 1022 1e-08 0
942 943 1024 1e-08 0
942 1024 1023 1e-08 0
943 944 1024 1e-08 0
944 1025 1024 1e-08 0
944 945 1026 1e-08 0
944 1026 1025 1e-08 0
945 946 1026 1e-08 0
946 1027 1026 1e-08 0
946 947 1028 1e-08 0
946 1028 1027 1e-08 0
947 948 1028 1e-08 0
948 1029 1028 1e-08 0
948 949 1030 1e-08 0
948 1030 1029 1e-08 0
949 950 1030 1e-08 0
950 1031 1030 1e-08 0
950 951 1032 1e-08 0
950 1032 1031 1e-08 0
951 952 1032 1e-08 0
952 1033 1032 1e-08 0
952 953 1034 1e-08 0
952 1034 1033 1e-08 0
953 954 1034 1e-08 0
954 1035 1034 1e-08 0
954 955 1036 1e-08 0
954 1036 1035 1e-08 0
955 956 1036 1e-08 0
956 1037 1036 1e-08 0
956 957 1038 1e-08 0
956 1038 1037 1e-08 0
957 958 1038 1e-08 0
958 1039 1038 1e-08 0
958 959 1040 1e-08 0
958 1040 1039 1e-08 0
959 960 1040 1e-08 0
960 1041 1040 1e-08 0
960 961 1042 1e-08 0
960 1042 1041 1e-08 0
961 962 1042 1e-08 0
962 1043 1042 1e-08 0
962 963 1044 1e-08 0
962 1044 1043 1e-08 0
963 964 1044 1e-08 0
964 1045 1044 1e-08 0
964 965 1046 1e-08 0
964 1046 1045 1e-08 0
965 966 1046 1e-08 0
966 1047 1046 1e-08 0
966 967 1048 1e-08 0
966 1048 1047 1e-08 0
967 968 1048 1e-08 0
968 1049 1048 1e-08 0
968 969 1050 1e-08 0
968 1050 1049 1e-08 0
969 970 1050 1e-08 0
970 1051 1050 1e-08 0
970 971 1052 1e-08 0
970 1052 1051 1e-08 0
972 973 1054 1e-08 0
972 1054 1053 1e-08 0
973 974 1054 1e-08 0
974 1055 1054 1e-08 0
974 975 1056 1e-08 0
974 1056 1055 1e-08 0
975 976 1056 1e-08 0
976 1057 1056 1e-08 0
976 977 1058 1e-08 0
976 1058 1057 1e-08 0
977 978 1058 1e-08 0
978 1059 1058 1e-08 0
978 979 1060 1e-08 0
978 1060 1059 1e-08 0
979 980 1060 1e-08 0
980 1061 1060 1e-08 0
980 981 1062 1e-08 0
980 1062 1061 1e-08 0
981 982 1062 1e-08 0
982 1063 1062 1e-08 0
982 983 1064 1e-08 0
982 1064 1063 1e-08 0
983 984 1064 1e-08 0
984 1065 1064 1e-08 0
984 985 1066 1e-08 0
984 1066 1065 1e-08 0
985 986 1066 1e-08 0
986 1067 1066 1e-08 0
986 987 1068 1e-08 0
986 1068 1067 1e-08 0
987 988 1068 1e-08 0
988 1069 1068 1e-08 0
988 989 1070 1e-08 0
988 1070 1069 1e-08 0
989 990 1070 1e-08 0
990 1071 1070 1e-08 0
990 991 1072 1e-08 0
990 1072 1071 1e-08 0
991 992 1072 1e-08 0
992 1073 1072 1e-08 0
992 993 1074 1e-08 0
992 1074 1073 1e-08 0
993 994 1074 1e-08 0
994 1075 1074 1e-08 0
994 995 1076 1e-08 0
994 1076 1075 1e-08 0
995 996 1076 1e-08 0
996 1077 1076 1e-08 0
996 997 1078 1e-08 0
996 1078 1077 1e-08 0
997 998 1078 1e-08 0
998 1079 1078 1e-08 0
998 999 1080 1e-08 0
998 1080 1079 1e-08 0
999 1000 1080 1e-08 0
1000 1081 1080 1e-08 0
1000 1001 1082 1e-08 0
1000 1082 1081 1e-08 0
1001 1002 1082 1e-08 0
1002 1083 1082 1e-08 0
1002 1003 1084 1e-08 0
1002 1084 1083 1e-08 0
1003 1004 1084 1e-08 0
1004 1085 1084 1e-08 0
1004 1005 1086 1e-08 0
1004 1086 1085 1e-08 0
1005 1006 1086 1e-08 0
1006 1087 1086 1e-08 0
1006 1007 1088 1e-08 0
1006 1088 1087 1e-08 0
1007 1008 1088 1e-08 0
1008 1089 1088 1e-08 0
1008 1009 1090 1e-08 0
1008 1090 1089 1e-08 0
1009 1010 1090 1e-08 0
1010 1091 1090 1e-08 0
1010 1011 1092 1e-08 0
1010 1092 1091 1e-08 0
1011 1012 1092 1e-08 0
1012 1093 1092 1e-08 0
1012 1013 1094 1e-08 0
1012 1094 1093 1e-08 0
1013 1014 1094 1e-08 0
1014 1095 1094 1e-08 0
1014 1015 1096 1e-08 0
1014 1096 1095 1e-08 0
1015 1016 1096 1e-08 0
1016 1097 1096 1e-08 0
1016 1017 1098 1e-08 0
1016 1098 1097 1e-08 0
1017 1018 1098 1e-08 0
1018 1099 1098 1e-08 0
1018 1019 1100 1e-08 0
1018 1100 1099 1e-08 0
1019 1020 1100 1e-08 0
1020 1101 1100 1e-08 0
1020 1021 1102 1e-08 0
1020 1102 1101 1e-08 0
1021 1022 1102 1e-08 0
1022 1103 1102 1e-08 0
1022 1023 1104 1e-08 0
1022 1104 1103 1e-08 0
1023 1024 1104 1e-08 0
1024 1105 1104 1e-08 0
1024 1025 1106 1e-08 0
1024 1106 1105 1e-08 0
1025 1026 1106 1e-08 0
1026 1107 1106 1e-08 0
1026 1027 1108 1e-08 0
1026 1108 1107 1e-08 0
1027 1028 1108 1e-08 0
1028 1109 1108 1e-08 0
1028 1029 1110 1e-08 0
1028 1110 1109 1e-08 0
1029 1030 1110 1e-08 0
1030 1111 1110 1e-08 0
1030 1031 1112 1e-08 0
1030 1112 1111 1e-08 0
1031 1032 1112 1e-08 0
1032 1113 1112 1e-08 0
1032 1033 1114 1e-08 0
1032 1114 1113 1e-08 0
1033 1034 1114 1e-08 0
1034 1115 1114 1e-08 0
1034 1035 1116 1e-08 0
1034 1116 1115 1e-08 0
1035 1036 1116 1e-08 0
1036 1117 1116 1e-08 0
1036 1037 1118 1e-08 0
1036 1118 1117 1e-08 0
1037 1038 1118 1e-08 0
1038 1119 1118 1e-08 0
1038 1039 1120 1e-08 0
1038 1120 1119 1e-08 0
1039 1040 1120 1e-08 0
1040 1121 1120 1e-08 0
1040 1041 1122 1e-08 0
1040 1122 1121 1e-08 0
1041 1042 1122 1e-08 0
1042 1123 1122 1e-08 0
1042 1043 1124 1e-08 0
1042 1124 1123 1e-08 0
1043 1044 1124 1e-08 0
1044 1125 1124 1e-08 0
1044 1045 1126 1e-08 0
1044 1126 1125 1e-08 0
1045 1046 1126 1e-08 0
1046 1127 1126 1e-08 0
1046 1047 1128 1e-08 0
1046 1128 1127 1e-08 0
1047 1048 1128 1e-08 0
1048 1129 1128 1e-08 0
1048 1049 1130 1e-08 0
1048 1130 1129 1e-08 0
1049 1050 1130 1e-08 0
1050 1131 1130 1e-08 0
1050 1051 1132 1e-08 0
1050 1132 1131 1e-08 0
1051 1052 1132 1e-08 0
1052 1133 1132 1e-08 0
1053 1054 1134 1e-08 0
1054 1135 1134 1e-08 0
1054 1055 1136 1e-08 0
1054 1136 1135 1e-08 0
1055 1056 1136 1e-08 0
1056 1137 1136 1e-08 0
1056 1057 1138 1e-08 0
1056 1138 1137 1e-08 0
1057 1058 1138 1e-08 0
1058 1139 1138 1e-08 0
1058 1059 1140 1e-08 0
1058 1140 1139 1e-08 0
1059 1060 1140 1e-08 0
1060 1141 1140 1e-08 0
1060 1061 1142 1e-08 0
1060 1142 1141 1e-08 0
1061 1062 1142 1e-08 0
1062 1143 1142 1e-08 0
1062 1063 1144 1e-08 0
1062 1144 1143 1e-08 0
1063 1064 1144 1e-08 0
1064 1145 1144 1e-08 0
1064 1065 1146 1e-08 0
1064 1146 1145 1e-08 0
1065 1066 1146 1e-08 0
1066 1147 1146 1e-08 0
1066 1067 1148 1e-08 0
1066 1148 1147 1e-08 0
1067 1068 1148 1e-08 0
1068 1149 1148 1e-08 0
1068 1069 1150 1e-08 0
1068 1150 1149 1e-08 0
1069 1070 1150 1e-08 0
1070 1151 1150 1e-08 0
1070 1071 1152 1e-08 0
1070 1152 1151 1e-08 0
1071 1072 1152 1e-08 0
1072 1153 1152 1e-08 0
1072 1073 1154 1e-08 0
1072 1154 1153 1e-08 0
1073 1074 1154 1e-08 0
1074 1155 1154 1e-08 0
1074 1075 1156 1e-08 0
1074 1156 1155 1e-08 0
1075 1076 1156 1e-08 0
1076 1157 1156 1e-08 0
1076 1077 1158 1e-08 0
1076 1158 1157 1e-08 0
1077 1078 1158 1e-08 0
1078 1159 1158 1e-08 0
1078 1079 1160 1e-08 0
1078 1160 1159 1e-08 0
1079 1080 1160 1e-08 0
1080 1161 1160 1e-08 0
1080 1081 1162 1e-08 0
1080 1162 1161 1e-08 0
1081 1082 1162 1e-08 0
1082 1163 1162 1e-08 0
1082 1083 1164 1e-08 0
1082 1164 1163 1e-08 0
1083 1084 1164 1e-08 0
1084 1165 1164 1e-08 0
1084 1085 1166 1e-08 0
1084 1166 1165 1e-08 0
1085 1086 1166 1e-08 0
1086 1167 1166 1e-08 0
1086 1087 1168 1e-08 0
1086 1168 1167 1e-08 0
1087 1088 1168 1e-08 0
1088 1169 1168 1e-08 0
1088 1089 1170 1e-08 0
1088 1170 1169 1e-08 0
1089 1090 1170 1e-08 0
1090 1171 1170 1e-08 0
1090 1091 1172 1e-08 0
1090 1172 1171 1e-08 0
1091 1092 1172 1e-08 0
1092 1173 1172 1e-08 0
1092 1093 1174 1e-08 0
1092 1174 1173 1e-08 0
1093 1094 1174 1e-08 0
1094 1175 1174 1e-08 0
1094 1095 1176 1e-08 0
1094 1176 1175 1e-08 0
1095 1096 1176 1e-08 0
1096 1177 1176 1e-08 0
1096 1097 1178 1e-08 0
1096 1178 1177 1e-08 0
1097 1098 1178 1e-08 0
1098 1179 1178 1e-08 0
1098 1099 1180 1e-08 0
1098 1180 1179 1e-08 0
1099 1100 1180 1e-08 0
1100 1181 1180 1e-08 0
1100 1101 1182 1e-08 0
1100 1182 1181 1e-08 0
1101 1102 1182 1e-08 0
1102 1183 1182 1e-08 0
1102 1103 1184 1e-08 0
1102 1184 1183 1e-08 0
1103 1104 1184 1e-08 0
1104 1185 1184 1e-08 0
1104 1105 1186 1e-08 0
1104 1186 1185 1e-08 0
1105 1106 1186 1e-08 0
1106 1187 1186 1e-08 0
1106 1107 1188 1e-08 0
1106 1188 1187 1e-08 0
1107 1108 1188 1e-08 0
1108 1189 1188 1e-08 0
1108 1109 1190 1e-08 0
1108 1190 1189 1e-08 0
1109 1110 1190 1e-08 0
1110 1191 1190 1e-08 0
1110 1111 1192 1e-08 0
1110 1192 1191 1e-08 0
1111 1112 1192 1e-08 0
1112 1193 1192 1e-08 0
1112 1113 1194 1e-08 0
1112 1194 1193 1e-08 0
1113 1114 1194 1e-08 0
1114 1195 1194 1e-08 0
1114 1115 1196 1e-08 0
1114 1196 1195 1e-08 0
1115 1116 1196 1e-08 0
1116 1197 1196 1e-08 0
1116 1117 1198 1e-08 0
1116 1198 1197 1e-08 0
1117 1118 1198 1e-08 0
1118 1199 1198 1e-08 0
1118 1119 1200 1e-08 0
1118 1200 1199 1e-08 0
1119 1120 1200 1e-08 0
1120 1201 1200 1e-08 0
1120 1121 1202 1e-08 0
1120 1202 1201 1e-08 0
1121 1122 1202 1e-08 0
1122 1203 1202 1e-08 0
1122 1123 1204 1e-08 0
1122 1204 1203 1e-08 0
1123 1124 1204 1e-08 0
1124 1205 1204 1e-08 0
1124 1125 1206 1e-08 0
1124 1206 1205 1e-08 0
1125 1126 1206 1e-08 0
1126 1207 1206 1e-08 0
1126 1127 1208 1e-08 0
1126 1208 1207 1e-08 0
1127 1128 1208 1e-08 0
1128 1209 1208 1e-08 0
1128 1129 1210 1e-08 0
1128 1210 1209 1e-08 0
1129 1130 1210 1e-08 0
1130 1211 1210 1e-08 0
1130 1131 1212 1e-08 0
1130 1212 1211 1e-08 0
1131 1132 1212 1e-08 0
1132 1213 1212 1e-08 0
1132 1133 1214 1e-08 0
1132 1214 1213 1e-08 0
1134 1135 1216 1e-08 0
1134 1216 1215 1e-08 0
1135 1136 1216 1e-08 0
1136 1217 1216 1e-08 0
1136 1137 1218 1e-08 0
1136 1218 1217 1e-08 0
1137 1138 1218 1e-08 0
1138 1219 1218 1e-08 0
1138 1139 1220 1e-08 0
1138 1220 1219 1e-08 0
1139 1140 1220 1e-08 0
1140 1221 1220 1e-08 0
1140 1141 1222 1e-08 0
1140 1222 1221 1e-08 0
1141 1142 1222 1e-08 0
1142 1223 1222 1e-08 0
1142 1143 1224 1e-08 0
1142 1224 1223 1e-08 0
1143 1144 1224 1e-08 0
1144 1225 1224 1e-08 0
1144 1145 1226 1e-08 0
1144 1226 1225 1e-08 0
1145 1146 1226 1e-08 0
1146 1227 1226 1e-08 0
1146 1147 1228 1e-08 0
1146 1228 1227 1e-08 0
1147 1148 1228 1e-08 0
1148 1229 1228 1e-08 0
1148 1149 1230 1e-08 0
1148 1230 1229 1e-08 0
1149 1150 1230 1e-08 0
1150 1231 1230 1e-08 0
1150 1151 1232 1e-08 0
1150 1232 1231 1e-08 0
1151 1152 1232 1e-08 0
1152 1233 1232 1e-08 0
1152 1153 1234 1e-08 0
1152 1234 1233 1e-08 0
1153 1154 1234 1e-08 0
1154 1235 1234 1e-08 0
1154 1155 1236 1e-08 0
1154 1236 1235 1e-08 0
1155 1156 1236 1e-08 0
1156 1237 1236 1e-08 0
1156 1157 1238 1e-08 0
1156 1238 1237 1e-08 0
1157 1158 1238 1e-08 0
1158 1239 1238 1e-08 0
1158 1159 1240 1e-08 0
1158 1240 1239 1e-08 0
1159 1160 1240 1e-08 0
1160 1241 1240 1e-08 0
1160 1161 1242 1e-08 0
1160 1242 1241 1e-08 0
1161 1162 1242 1e-08 0
1162 1243 1242 1e-08 0
1162 1163 1244 1e-08 0
1162 1244 1243 1e-08 0
1163 1164 1244 1e-08 0
1164 1245 1244 1e-08 0
1164 1165 1246 1e-08 0
1164 1246 1245 1e-08 0
1165 1166 1246 1e-08 0
1166 1247 1246 1e-08 0
1166 1167 1248 1e-08 0
1166 1248 1247 1e-08 0
1167 1168 1248 1e-08 0
1168 1249 1248 1e-08 0
1168 1169 1250 1e-08 0
1168 1250 1249 1e-08 0
1169 1170 1250 1e-08 0
1170 1251 1250 1e-08 0
1170 1171 1252 1e-08 0
1170 1252 1251 1e-08 0
1171 1172 1252 1e-08 0
1172 1253 1252 1e-08 0
1172 1173 1254 1e-08 0
1172 1254 1253 1e-08 0
1173 1174 1254 1e-08 0
1174 1255 1254 1e-08 0
1174 1175 1256 1e-08 0
1174 1256 1255 1e-08 0
1175 1176 1256 1e-08 0
1176 1257 1256 1e-08 0
1176 1177 1258 1e-08 0
1176 1258 1257 1e-08 0
1177 1178 1258 1e-08 0
1178 1259 1258 1e-08 0
1178 1179 1260 1e-08 0
1178 1260 1259 1e-08 0
1179 1180 1260 1e-08 0
1180 1261 1260 1e-08 0
1180 1181 1262 1e-08 0
1180 1262 1261 1e-08 0
1181 1182 1262 1e-08 0
1182 1263 1262 1e-08 0
1182 1183 1264 1e-08 0
1182 1264 1263 1e-08 0
1183 1184 1264 1e-08 0
1184 1265 1264 1e-08 0
1184 1185 1266 1e-08 0
1184 1266 1265 1e-08 0
1185 1186 1266 1e-08 0
1186 1267 1266 1e-08 0
1186 1187 1268 1e-08 0
1186 1268 1267 1e-08 0
1187 1188 1268 1e-08 0
1188 1269 1268 1e-08 0
1188 1189 1270 1e-08 0
1188 1270 1269 1e-08 0
1189 1190 1270 1e-08 0
1190 1271 1270 1e-08 0
1190 1191 1272 1e-08 0
1190 1272 1271 1e-08 0
1191 1192 1272 1e-08 0
1192 1273 1272 1e-08 0
1192 1193 1274 1e-08 0
1192 1274 1273 1e-08 0
1193 1194 1274 1e-08 0
1194 1275 1274 1e-08 0
1194 1195 1276 1e-08 0
1194 1276 1275 1e-08 0
1195 1196 1276 1e-08 0
1196 1277 1276 1e-08 0
1196 1197 1278 1e-08 0
1196 1278 1277 1e-08 0
1197 1198 1278 1e-08 0
1198 1279 1278 1e-08 0
1198 1199 1280 1e-08 0
1198 1280 1279 1e-08 0
1199 1200 1280 1e-08 0
1200 1281 1280 1e-08 0
1200 1201 1282 1e-08 0
1200 1282 1281 1e-08 0
1201 1202 1282 1e-08 0
1202 1283 1282 1e-08 0
1202 1203 1284 1e-08 0
1202 1284 1283 1e-08 0
1203 1204 1284 1e-08 0
1204 1285 1284 1e-08 0
1204 1205 1286 1e-08 0
1204 1286 1285 1e-08 0
1205 1206 1286 1e-08 0
1206 1287 1286 1e-08 0
1206 1207 1288 1e-08 0
1206 1288 1287 1e-08 0
1207 1208 1288 1e-08 0
1208 1289 1288 1e-08 0
1208 1209 1290 1e-08 0
1208 1290 1289 1e-08 0
1209 1210 1290 1e-08 0
1210 1291 1290 1e-08 0
1210 1211 1292 1e-08 0
1210 1292 1291 1e-08 0
1211 1212 1292 1e-08 0
1212 1293 1292 1e-08 0
1212 1213 1294 1e-08 0
1212 1294 1293 1e-08 0
1213 1214 1294 1e-08 0
1214 1295 1294 1e-08 0
1215 1216 1296 1e-08 0
1216 1297 1296 1e-08 0
1216 1217 1298 1e-08 0
1216 1298 1297 1e-08 0
1217 1218 1298 1e-08 0
1218 1299 1298 1e-08 0
1218 1219 1300 1e-08 0
1218 1300 1299 1e-08 0
1219 1220 1300 1e-08 0
1220 1301 1300 1e-08 0
1220 1221 1302 1e-08 0
1220 1302 1301 1e-08 0
1221 1222 1302 1e-08 0
1222 1303 1302 1e-08 0
1222 1223 1304 1e-08 0
1222 1304 1303 1e-08 0
1223 1224 1304 1e-08 0
1224 1305 1304 1e-08 0
1224 1225 1306 1e-08 0
1224 1306 1305 1e-08 0
1225 1226 1306 1e-08 0
1226 1307 1306 1e-08 0
1226 1227 1308 1e-08 0
1226 1308 1307 1e-08 0
1227 1228 1308 1e-08 0
1228 1309 1308 1e-08 0
1228 1229 1310 1e-08 0
1228 1310 1309 1e-08 0
1229 1230 1310 1e-08 0
1230 1311 1310 1e-08 0
1230 1231 1312 1e-08 0
1230 1312 1311 1e-08 0
1231 1232 1312 1e-08 0
1232 1313 1312 1e-08 0
1232 1233 1314 1e-08 0
1232 1314 1313 1e-08 0
1233 1234 1314 1e-08 0
1234 1315 1314 1e-08 0
1234 1235 1316 1e-08 0
1234 1316 1315 1e-08 0
1235 1236 1316 1e-08 0
1236 1317 1316 1e-08 0
1236 1237 1318 1e-08 0
1236 1318 1317 1e-08 0
1237 1238 1318 1e-08 0
1238 1319 1318 1e-08 0
1238 1239 1320 1e-08 0
1238 1320 1319 1e-08 0
1239 1240 1320 1e-08 0
1240 1321 1320 1e-08 0
1240 1241 1322 1e-08 0
1240 1322 1321 1e-08 0
1241 1242 1322 1e-08 0
1242 1323 1322 1e-08 0
1242 1243 1324 1e-08 0
1242 1324 1323 1e-08 0
1243 1244 1324 1e-08 0
1244 1325 1324 1e-08 0
1244 1245 1326 1e-08 0
1244 1326 1325 1e-08 0
1245 1246 1326 1e-08 0
1246 1327 1326 1e-08 0
1246 1247 1328 1e-08 0
1246 1328 1327 1e-08 0
1247 1248 1328 1e-08 0
1248 1329 1328 1e-08 0
1248 1249 1330 1e-08 0
1248 1330 1329 1e-08 0
1249 1250 1330 1e-08 0
1250 1331 1330 1e-08 0
1250 1251 1332 1e-08 0
1250 1332 1331 1e-08 0
1251 1252 1332 1e-08 0
1252 1333 1332 1e-08 0
1252 1253 1334 1e-08 0
1252 1334 1333 1e-08 0
1253 1254 1334 1e-08 0
1254 1335 1334 1e-08 0
1254 1255 1336 1e-08 0
1254 1336 1335 1e-08 0
1255 1256 1336 1e-08 0
1256 1337 1336 1e-08 0
1256 1257 1338 1e-08 0
1256 1338 1337 1e-08 0
1257 1258 1338 1e-08 0
1258 1339 1338 1e-08 0
1258 1259 1340 1e-08 0
1258 1340 1339 1e-08 0
1259 1260 1340 1e-08 0
1260 1341 1340 1e-08 0
1260 1261 1342 1e-08 0
1260 1342 1341 1e-08 0
1261 1262 1342 1e-08 0
1262 1343 1342 1e-08 0
1262 1263 1344 1e-08 0
1262 1344 1343 1e-08 0
1263 1264 1344 1e-08 0
1264 1345 1344 1e-08 0
1264 1265 1346 1e-08 0
1264 1346 1345 1e-08 0
1265 1266 1346 1e-08 0
1266 1347 1346 1e-08 0
1266 1267 1348 1e-08 0
1266 1348 1347 1e-08 0
1267 1268 1348 1e-08 0
1268 1349 1348 1e-08 0
1268 1269 1350 1e-08 0
1268 1350 1349 1e-08 0
1269 1270 1350 1e-08 0
1270 1351 1350 1e-08 0
1270 1271 1352 1e-08 0
1270 1352 1351 1e-08 0
1271 1272 1352 1e-08 0
1272 1353 1352 1e-08 0
1272 1273 1354 1e-08 0
1272 1354 1353 1e-08 0
1273 1274 1354 1e-08 0
1274 1355 1354 1e-08 0
1274 1275 1356 1e-08 0
1274 1356 1355 1e-08 0
1275 1276 1356 1e-08 0
1276 1357 1356 1e-08 0
1276 1277 1358 1e-08 0
1276 1358 1357 1e-08 0
1277 1278 1358 1e-08 0
1278 1359 1358 1e-08 0
1278 1279 1360 1e-08 0
1278 1360 1359 1e-08 0
1279 1280 1360 1e-08 0
1280 1361 1360 1e-08 0
1280 1281 1362 1e-08 0
1280 1362 1361 1e-08 0
1281 1282 1362 1e-08 0
1282 1363 1362 1e-08 0
1282 1283 1364 1e-08 0
1282 1364 1363 1e-08 0
1283 1284 1364 1e-08 0
1284 1365 1364 1e-08 0
1284 1285 1366 1e-08 0
1284 1366 1365 1e-08 0
1285 1286 1366 1e-08 0
1286 1367 1366 1e-08 0
1286 1287 1368 1e-08 0
1286 1368 1367 1e-08 0
1287 1288 1368 1e-08 0
1288 1369 1368 1e-08 0
1288 1289 1370 1e-08 0
1288 1370 1369 1e-08 0
1289 1290 1370 1e-08 0
1290 1371 1370 1e-08 0
1290 1291 1372 1e-08 0
1290 1372 1371 1e-08 0
1291 1292 1372 1e-08 0
1292 1373 1372 1e-08 0
1292 1293 1374 1e-08 0
1292 1374 1373 1e-08 0
1293 1294 1374 1e-08 0
1294 1375 1374 1e-08 0
1294 1295 1376 1e-08 0
1294 1376 1375 1e-08 0
1296 1297 1378 1e-08 0
1296 1378 1377 1e-08 0
1297 1298 1378 1e-08 0
1298 1379 1378 1e-08 0
1298 1299 1380 1e-08 0
1298 1380 1379 1e-08 0
1299 1300 1380 1e-08 0
1300 1381 1380 1e-08 0
1300 1301 1382 1e-08 0
1300 1382 1381 1e-08 0
1301 1302 1382 1e-08 0
1302 1383 1382 1e-08 0
1302 1303 1384 1e-08 0
1302 1384 1383 1e-08 0
1303 1304 1384 1e-08 0
1304 1385 1384 1e-08 0
1304 1305 1386 1e-08 0
1304 1386 1385 1e-08 0
1305 1306 1386 1e-08 0
1306 1387 1386 1e-08 0
1306 1307 1388 1e-08 0
1306 1388 1387 1e-08 0
1307 1308 1388 1e-08 0
1308 1389 1388 1e-08 0
1308 1309 1390 1e-08 0
1308 1390 1389 1e-08 0
1309 1310 1390 1e-08 0
1310 1391 1390 1e-08 0
1310 1311 1392 1e-08 0
1310 1392 1391 1e-08 0
1311 1312 1392 1e-08 0
1312 1393 1392 1e-08 0
1312 1313 1394 1e-08 0
1312 1394 1393 1e-08 0
1313 1314 1394 1e-08 0
1314 1395 1394 1e-08 0
1314 1315 1396 1e-08 0
1314 1396 1395 1e-08 0
1315 1316 1396 1e-08 0
1316 1397 1396 1e-08 0
1316 1317 1398 1e-08 0
1316 1398 1397 1e-08 0
1317 1318 1398 1e-08 0
1318 1399 1398 1e-08 0
1318 1319 1400 1e-08 0
1318 1400 1399 1e-08 0
1319 1320 1400 1e-08 0
1320 1401 1400 1e-08 0
1320 1321 1402 1e-08 0
1320 1402 1401 1e-08 0
1321 1322 1402 1e-08 0
1322 1403 1402 1e-08 0
1322 1323 1404 1e-08 0
1322 1404 1403 1e-08 0
1323 1324 1404 1e-08 0
1324 1405 1404 1e-08 0
1324 1325 1406 1e-08 0
1324 1406 1405 1e-08 0
1325 1326 1406 1e-08 0
1326 1407 1406 1e-08 0
1326 1327 1408 1e-08 0
1326 1408 1407 1e-08 0
1327 1328 1408 1e-08 0
1328 1409 1408 1e-08 0
1328 1329 1410 1e-08 0
1328 1410 1409 1e-08 0
1329 1330 1410 1e-08 0
1330 1411 1410 1e-08 0
1330 1331 1412 1e-08 0
1330 1412 1411 1e-08 0
1331 1332 1412 1e-08 0
1332 1413 1412 1e-08 0
1332 1333 1414 1e-08 0
1332 1414 1413 1e-08 0
1333 1334 1414 1e-08 0
1334 1415 1414 1e-08 0
1334 1335 1416 1e-08 0
1334 1416 1415 1e-08 0
1335 1336 1416 1e-08 0
1336 1417 1416 1e-08 0
1336 1337 1418 1e-08 0
1336 1418 1417 1e-08 0
1337 1338 1418 1e-08 0
1338 1419 1418 1e-08 0
1338 1339 1420 1e-08 0
1338 1420 1419 1e-08 0
1339 1340 1420 1e-08 0
1340 1421 1420 1e-08 0
1340 1341 1422 1e-08 0
1340 1422 1421 1e-08 0
1341 1342 1422 1e-08 0
1342 1423 1422 1e-08 0
1342 1343 1424 1e-08 0
1342 1424 1423 1e-08 0
1343 1344 1424 1e-08 0
1344 1425 1424 1e-08 0
1344 1345 1426 1e-08 0
1344 1426 1425 1e-08 0
1345 1346 1426 1e-08 0
1346 1427 1426 1e-08 0
1346 1347 1428 1e-08 0
1346 1428 1427 1e-08 0
1347 1348 1428 1e-08 0
1348 1429 1428 1e-08 0
1348 1349 1430 1e-08 0
1348 1430 1429 1e-08 0
1349 1350 1430 1e-08 0
1350 1431 1430 1e-08 0
1350 1351 1432 1e-08 0
1350 1432 1431 1e-08 0
1351 1352 1432 1e-08 0
1352 1433 1432 1e-08 0
1352 1353 1434 1e-08 0
1352 1434 1433 1e-08 0
1353 1354 1434 1e-08 0
1354 1435 1434 1e-08 0
1354 1355 1436 1e-08 0
1354 1436 1435 1e-08 0
1355 1356 1436 1e-08 0
1356 1437 1436 1e-08 0
1356 1357 1438 1e-08 0
1356 1438 1437 1e-08 0
1357 1358 1438 1e-08 0
1358 1439 1438 1e-08 0
1358 1359 1440 1e-08 0
1358 1440 1439 1e-08 0
1359 1360 1440 1e-08 0
1360 1441 1440 1e-08 0
1360 1361 1442 1e-08 0
1360 1442 1441 1e-08 0
1361 1362 1442 1e-08 0
1362 1443 1442 1e-08 0
1362 1363 1444 1e-08 0
1362 1444 1443 1e-08 0
1363 1364 1444 1e-08 0
1364 1445 1444 1e-08 0
1364 1365 1446 1e-08 0
1364 1446 1445 1e-08 0
1365 1366 1446 1e-08 0
1366 1447 1446 1e-08 0
1366 1367 1448 1e-08 0
1366 1448 1447 1e-08 0
1367 1368 1448 1e-08 0
1368 1449 1448 1e-08 0
1368 1369 1450 1e-08 0
1368 1450 1449 1e-08 0
1369 1370 1450 1e-08 0
1370 1451 1450 1e-08 0
1370 1371 1452 1e-08 0
1370 1452 1451 1e-08 0
1371 1372 1452 1e-08 0
1372 1453 1452 1e-08 0
1372 1373 1454 1e-08 0
1372 1454 1453 1e-08 0
1373 1374 1454 1e-08 0
1374 1455 1454 1e-08 0
1374 1375 1456 1e-08 0
1374 1456 1455 1e-08 0
1375 1376 1456 1e-08 0
1376 1457 1456 1e-08 0
1377 1378 1458 1e-08 0
1378 1459 1458 1e-08 0
1378 1379 1460 1e-08 0
1378 1460 1459 1e-08 0
1379 1380 1460 1e-08 0
1380 1461 1460 1e-08 0
1380 1381 1462 1e-08 0
1380 1462 1461 1e-08 0
1381 1382 1462 1e-08 0
1382 1463 1462 1e-08 0
1382 1383 1464 1e-08 0
1382 1464 1463 1e-08 0
1383 1384 1464 1e-08 0
1384 1465 1464 1e-08 0
1384 1385 1466 1e-08 0
1384 1466 1465 1e-08 0
1385 1386 1466 1e-08 0
1386 1467 1466 1e-08 0
1386 1387 1468 1e-08 0
1386 1468 1467 1e-08 0
1387 1388 1468 1e-08 0
1388 1469 1468 1e-08 0
1388 1389 1470 1e-08 0
1388 1470 1469 1e-08 0
1389 1390 1470 1e-08 0
1390 1471 1470 1e-08 0
1390 1391 1472 1e-08 0
1390 1472 1471 1e-08 0
1391 1392 1472 1e-08 0
1392 1473 1472 1e-08 0
1392 1393 1474 1e-08 0
1392 1474 1473 1e-08 0
1393 1394 1474 1e-08 0
1394 1475 1474 1e-08 0
1394 1395 1476 1e-08 0
1394 1476 1475 1e-08 0
1395 1396 1476 1e-08 0
1396 1477 1476 1e-08 0
1396 1397 1478 1e-08 0
1396 1478 1477 1e-08 0
1397 1398 1478 1e-08 0
1398 1479 1478 1e-08 0
1398 1399 1480 1e-08 0
1398 1480 1479 1e-08 0
1399 1400 1480 1e-08 0
1400 1481 1480 1e-08 0
1400 1401 1482 1e-08 0
1400 1482 1481 1e-08 0
1401 1402 1482 1e-08 0
1402 1483 1482 1e-08 0
1402 1403 1484 1e-08 0
1402 1484 1483 1e-08 0
1403 1404 1484 1e-08 0
1404 1485 1484 1e-08 0
1404 1405 1486 1e-08 0
1404 1486 1485 1e-08 0
1405 1406 1486 1e-08 0
1406 1487 1486 1e-08 0
1406 1407 1488 1e-08 0
1406 1488 1487 1e-08 0
1407 1408 1488 1e-08 0
1408 1489 1488 1e-08 0
1408 1409 1490 1e-08 0
1408 1490 1489 1e-08 0
1409 1410 1490 1e-08 0
1410 1491 1490 1e-08 0
1410 1411 1492 1e-08 0
1410 1492 1491 1e-08 0
1411 1412 1492 1e-08 0
1412 1493 1492 1e-08 0
1412 1413 1494 1e-08 0
1412 1494 1493 1e-08 0
1413 1414 1494 1e-08 0
1414 1495 1494 1e-08 0
1414 1415 1496 1e-08 0
1414 1496 1495 1e-08 0
1415 1416 1496 1e-08 0
1416 1497 1496 1e-08 0
1416 1417 1498 1e-08 0
1416 1498 1497 1e-08 0
1417 1418 1498 1e-08 0
1418 1499 1498 1e-08 0
1418 1419 1500 1e-08 0
1418 1500 1499 1e-08 0
1419 1420 1500 1e-08 0
1420 1501 1500 1e-08 0
1420 1421 1502 1e-08 0
1420 1502 1501 1e-08 0
1421 1422 1502 1e-08 0
1422 1503 1502 1e-08 0
1422 1423 1504 1e-08 0
1422 1504 1503 1e-08 0
1423 1424 1504 1e-08 0
1424 1505 1504 1e-08 0
1424 1425 1506 1e-08 0
1424 1506 1505 1e-08 0
1425 1426 1506 1e-08 0
1426 1507 1506 1e-08 0
1426 1427 1508 1e-08 0
1426 1508 1507 1e-08 0
1427 1428 1508 1e-08 0
1428 1509 1508 1e-08 0
1428 1429 1510 1e-08 0
1428 1510 1509 1e-08 0
1429 1430 1510 1e-08 0
1430 1511 1510 1e-08 0
1430 1431 1512 1e-08 0
1430 1512 1511 1e-08 0
1431 1432 1512 1e-08 0
1432 1513 1512 1e-08 0
1432 1433 1514 1e-08 0
1432 1514 1513 1e-08 0
1433 1434 1514 1e-08 0
1434 1515 1514 1e-08 0
1434 1435 1516 1e-08 0
1434 1516 1515 1e-08 0
1435 1436 1516 1e-08 0
1436 1517 1516 1e-08 0
1436 1437 1518 1e-08 0
1436 1518 1517 1e-08 0
1437 1438 1518 1e-08 0
1438 1519 1518 1e-08 0
1438 1439 1520 1e-08 0
1438 1520 1519 1e-08 0
1439 1440 1520 1e-08 0
1440 1521 1520 1e-08 0
1440 1441 1522 1e-08 0
1440 1522 1521 1e-08 0
1441 1442 1522 1e-08 0
1442 1523 1522 1e-08 0
1442 1443 1524 1e-08 0
1442 1524 1523 1e-08 0
1443 1444 1524 1e-08 0
1444 1525 1524 1e-08 0
1444 1445 1526 1e-08 0
1444 1526 1525 1e-08 0
1445 1446 1526 1e-08 0
1446 1527 1526 1e-08 0
1446 1447 1528 1e-08 0
1446 1528 1527 1e-08 0
1447 1448 1528 1e-08 0
1448 1529 1528 1e-08 0
1448 1449 1530 1e-08 0
1448 1530 1529 1e-08 0
1449 1450 1530 1e-08 0
1450 1531 1530 1e-08 0
1450 1451 1532 1e-08 0
1450 1532 1531 1e-08 0
1451 1452 1532 1e-08 0
1452 1533 1532 1e-08 0
1452 1453 1534 1e-08 0
1452 1534 1533 1e-08 0
1453 1454 1534 1e-08 0
1454 1535 1534 1e-08 0
1454 1455 1536 1e-08 0
1454 1536 1535 1e-08 0
1455 1456 1536 1e-08 0
1456 1537 1536 1e-08 0
1456 1457 1538 1e-08 0
1456 1538 1537 1e-08 0
1458 1459 1540 1e-08 0
1458 1540 1539 1e-08 0
1459 1460 1540 1e-08 0
1460 1541 1540 1e-08 0
1460 1461 1542 1e-08 0
1460 1542 1541 1e-08 0
1461 1462 1542 1e-08 0
1462 1543 1542 1e-08 0
1462 1463 1544 1e-08 0
1462 1544 1543 1e-08 0
1463 1464 1544 1e-08 0
1464 1545 1544 1e-08 0
1464 1465 1546 1e-08 0
1464 1546 1545 1e-08 0
1465 1466 1546 1e-08 0
1466 1547 1546 1e-08 0
1466 1467 1548 1e-08 0
1466 1548 1547 1e-08 0
1467 1468 1548 1e-08 0
1468 1549 1548 1e-08 0
1468 1469 1550 1e-08 0
1468 1550 1549 1e-08 0
1469 1470 1550 1e-08 0
1470 1551 1550 1e-08 0
1470 1471 1552 1e-08 0
1470 1552 1551 1e-08 0
1471 1472 1552 1e-08 0
1472 1553 1552 1e-08 0
1472 1473 1554 1e-08 0
1472 1554 1553 1e-08 0
1473 1474 1554 1e-08 0
1474 1555 1554 1e-08 0
1474 1475 1556 1e-08 0
1474 1556 1555 1e-08 0
1475 1476 1556 1e-08 0
1476 1557 1556 1e-08 0
1476 1477 1558 1e-08 0
1476 1558 1557 1e-08 0
1477 1478 1558 1e-08 0
1478 1559 1558 1e-08 0
1478 1479 1560 1e-08 0
1478 1560 1559 1e-08 0
1479 1480 1560 1e-08 0
1480 1561 1560 1e-08 0
1480 1481 1562 1e-08 0
1480 1562 1561 1e-08 0
1481 1482 1562 1e-08 0
1482 1563 1562 1e-08 0
1482 1483 1564 1e-08 0
1482 1564 1563 1e-08 0
1483 1484 1564 1e-08 0
1484 1565 1564 1e-08 0
1484 1485 1566 1e-08 0
1484 1566 1565 1e-08 0
1485 1486 1566 1e-08 0
1486 1567 1566 1e-08 0
1486 1487 1568 1e-08 0
1486 1568 1567 1e-08 0
1487 1488 1568 1e-08 0
1488 1569 1568 1e-08 0
1488 1489 1570 1e-08 0
1488 1570 1569 1e-08 0
1489 1490 1570 1e-08 0
1490 1571 1570 1e-08 0
1490 1491 1572 1e-08 0
1490 1572 1571 1e-08 0
1491 1492 1572 1e-08 0
1492 1573 1572 1e-08 0
1492 1493 1574 1e-08 0
1492 1574 1573 1e-08 0
1493 1494 1574 1e-08 0
1494 1575 1574 1e-08 0
1494 1495 1576 1e-08 0
1494 1576 1575 1e-08 0
1495 1496 1576 1e-08 0
1496 1577 1576 1e-08 0
1496 1497 1578 1e-08 0
1496 1578 1577 1e-08 0
1497 1498 1578 1e-08 0
1498 1579 1578 1e-08 0
1498 1499 1580 1e-08 0
1498 1580 1579 1e-08 0
1499 1500 1580 1e-08 0
1500 1581 1580 1e-08 0
1500 1501 1582 1e-08 0
1500 1582 1581 1e-08 0
1501 1502 1582 1e-08 0
1502 1583 1582 1e-08 0
1502 1503 1584 1e-08 0
1502 1584 1583 1e-08 0
1503 1504 1584 1e-08 0
1504 1585 1584 1e-08 0
1504 1505 1586 1e-08 0
1504 1586 1585 1e-08 0
1505 1506 1586 1e-08 0
1506 1587 1586 1e-08 0
1506 1507 1588 1e-08 0
1506 1588 1587 1e-08 0
1507 1508 1588 1e-08 0
1508 1589 1588 1e-08 0
1508 1509 1590 1e-08 0
1508 1590 1589 1e-08 0
1509 1510 1590 1e-08 0
1510 1591 1590 1e-08 0
1510 1511 1592 1e-08 0
1510 1592 1591 1e-08 0
1511 1512 1592 1e-08 0
1512 1593 1592 1e-08 0
1512 1513 1594 1e-08 0
1512 1594 1593 1e-08 0
1513 1514 1594 1e-08 0
1514 1595 1594 1e-08 0
1514 1515 1596 1e-08 0
1514 1596 1595 1e-08 0
1515 1516 1596 1e-08 0
1516 1597 1596 1e-08 0
1516 1517 1598 1e-08 0
1516 1598 1597 1e-08 0
1517 1518 1598 1e-08 0
1518 1599 1598 1e-08 0
1518 1519 1600 1e-08 0
1518 1600 1599 1e-08 0
1519 1520 1600 1e-08 0
1520 1601 1600 1e-08 0
1520 1521 1602 1e-08 0
1520 1602 1601 1e-08 0
1521 1522 1602 1e-08 0
1522 1603 1602 1e-08 0
1522 1523 1604 1e-08 0
1522 1604 1603 1e-08 0
1523 1524 1604 1e-08 0
1524 1605 1604 1e-08 0
1524 1525 1606 1e-08 0
1524 1606 1605 1e-08 0
1525 1526 1606 1e-08 0
1526 1607 1606 1e-08 0
1526 1527 1608 1e-08 0
1526 1608 1607 1e-08 0
1527 1528 1608 1e-08 0
1528 1609 1608 1e-08 0
1528 1529 1610 1e-08 0
1528 1610 1609 1e-08 0
1529 1530 1610 1e-08 0
1530 1611 1610 1e-08 0
1530 1531 1612 1e-08 0
1530 1612 1611 1e-08 0
1531 1532 1612 1e-08 0
1532 1613 1612 1e-08 0
1532 1533 1614 1e-08 0
1532 1614 1613 1e-08 0
1533 1534 1614 1e-08 0
1534 1615 1614 1e-08 0
1534 1535 1616 1e-08 0
1534 1616 1615 1e-08 0
1535 1536 1616 1e-08 0
1536 1617 1616 1e-08 0
1536 1537 1618 1e-08 0
1536 1618 1617 1e-08 0
1537 1538 1618 1e-08 0
1538 1619 1618 1e-08 0
1539 1540 1620 1e-08 0
1540 1621 1620 1e-08 0
1540 1541 1622 1e-08 0
1540 1622 1621 1e-08 0
1541 1542 1622 1e-08 0
1542 1623 1622 1e-08 0
1542 1543 1624 1e-08 0
1542 1624 1623 1e-08 0
1543 1544 1624 1e-08 0
1544 1625 1624 1e-08 0
1544 1545 1626 1e-08 0
1544 1626 1625 1e-08 0
1545 1546 1626 1e-08 0
1546 1627 1626 1e-08 0
1546 1547 1628 1e-08 0
1546 1628 1627 1e-08 0
1547 1548 1628 1e-08 0
1548 1629 1628 1e-08 0
1548 1549 1630 1e-08 0
1548 1630 1629 1e-08 0
1549 1550 1630 1e-08 0
1550 1631 1630 1e-08 0
1550 1551 1632 1e-08 0
1550 1632 1631 1e-08 0
1551 1552 1632 1e-08 0
1552 1633 1632 1e-08 0
1552 1553 1634 1e-08 0
1552 1634 1633 1e-08 0
1553 1554 1634 1e-08 0
1554 1635 1634 1e-08 0
1554 1555 1636 1e-08 0
1554 1636 1635 1e-08 0
1555 1556 1636 1e-08 0
1556 1637 1636 1e-08 0
1556 1557 1638 1e-08 0
1556 1638 1637 1e-08 0
1557 1558 1638 1e-08 0
1558 1639 1638 1e-08 0
1558 1559 1640 1e-08 0
1558 1640 1639 1e-08 0
1559 1560 1640 1e-08 0
1560 1641 1640 1e-08 0
1560 1561 1642 1e-08 0
1560 1642 1641 1e-08 0
1561 1562 1642 1e-08 0
1562 1643 1642 1e-08 0
1562 1563 1644 1e-08 0
1562 1644 1643 1e-08 0
1563 1564 1644 1e-08 0
1564 1645 1644 1e-08 0
1564 1565 1646 1e-08 0
1564 1646 1645 1e-08 0
1565 1566 1646 1e-08 0
1566 1647 1646 1e-08 0
1566 1567 1648 1e-08 0
1566 1648 1647 1e-08 0
1567 1568 1648 1e-08 0
1568 1649 1648 1e-08 0
1568 1569 1650 1e-08 0
1568 1650 1649 1e-08 0
1569 1570 1650 1e-08 0
1570 1651 1650 1e-08 0
1570 1571 1652 1e-08 0
1570 1652 1651 1e-08 0
1571 1572 1652 1e-08 0
1572 1653 1652 1e-08 0
1572 1573 1654 1e-08 0
1572 1654 1653 1e-08 0
1573 1574 1654 1e-08 0
1574 1655 1654 1e-08 0
1574 1575 1656 1e-08 0
1574 1656 1655 1e-08 0
1575 1576 1656 1e-08 0
1576 1657 1656 1e-08 0
1576 1577 1658 1e-08 0
1576 1658 1657 1e-08 0
1577 1578 1658 1e-08 0
1578 1659 1658 1e-08 0
1578 1579 1660 1e-08 0
1578 1660 1659 1e-08 0
1579 1580 1660 1e-08 0
1580 1661 1660 1e-08 0
1580 1581 1662 1e-08 0
1580 1662 1661 1e-08 0
1581 1582 1662 1e-08 0
1582 1663 1662 1e-08 0
1582 1583 1664 1e-08 0
1582 1664 1663 1e-08 0
1583 1584 1664 1e-08 0
1584 1665 1664 1e-08 0
1584 1585 1666 1e-08 0
1584 1666 1665 1e-08 0
1585 1586 1666 1e-08 0
1586 1667 1666 1e-08 0
1586 1587 1668 1e-08 0
1586 1668 1667 1e-08 0
1587 1588 1668 1e-08 0
1588 1669 1668 1e-08 0
1588 1589 1670 1e-08 0
1588 1670 1669 1e-08 0
1589 1590 1670 1e-08 0
1590 1671 1670 1e-08 0
1590 1591 1672 1e-08 0
1590 1672 1671 1e-08 0
1591 1592 1672 1e-08 0
1592 1673 1672 1e-08 0
1592 1593 1674 1e-08 0
1592 1674 1673 1e-08 0
1593 1594 1674 1e-08 0
1594 1675 1674 1e-08 0
1594 1595 1676 1e-08 0
1594 1676 1675 1e-08 0
1595 1596 1676 1e-08 0
1596 1677 1676 1e-08 0
1596 1597 1678 1e-08 0
1596 1678 1677 1e-08 0
1597 1598 1678 1e-08 0
1598 1679 1678 1e-08 0
1598 1599 1680 1e-08 0
1598 1680 1679 1e-08 0
1599 1600 1680 1e-08 0
1600 1681 1680 1e-08 0
1600 1601 1682 1e-08 0
1600 1682 1681 1e-08 0
1601 1602 1682 1e-08 0
1602 1683 1682 1e-08 0
1602 1603 1684 1e-08 0
1602 1684 1683 1e-08 0
1603 1604 1684 1e-08 0
1604 1685 1684 1e-08 0
1604 1605 1686 1e-08 0
1604 1686 1685 1e-08 0
1605 1606 1686 1e-08 0
1606 1687 1686 1e-08 0
1606 1607 1688 1e-08 0
1606 1688 1687 1e-08 0
1607 1608 1688 1e-08 0
1608 1689 1688 1e-08 0
1608 1609 1690 1e-08 0
1608 1690 1689 1e-08 0
1609 1610 1690 1e-08 0
1610 1691 1690 1e-08 0
1610 1611 1692 1e-08 0
1610 1692 1691 1e-08 0
1611 1612 1692 1e-08 0
1612 1693 1692 1e-08 0
1612 1613 1694 1e-08 0
1612 1694 1693 1e-08 0
1613 1614 1694 1e-08 0
1614 1695 1694 1e-08 0
1614 1615 1696 1e-08 0
1614 1696 1695 1e-08 0
1615 1616 1696 1e-08 0
1616 1697 1696 1e-08 0
1616 1617 1698 1e-08 0
1616 1698 1697 1e-08 0
1617 1618 1698 1e-08 0
1618 1699 1698 1e-08 0
1618 1619 1700 1e-08 0
1618 1700 1699 1e-08 0
1620 1621 1702 1e-08 0
1620 1702 1701 1e-08 0
1621 1622 1702 1e-08 0
1622 1703 1702 1e-08 0
1622 1623 1704 1e-08 0
1622 1704 1703 1e-08 0
1623 1624 1704 1e-08 0
1624 1705 1704 1e-08 0
1624 1625 1706 1e-08 0
1624 1706 1705 1e-08 0
1625 1626 1706 1e-08 0
1626 1707 1706 1e-08 0
1626 1627 1708 1e-08 0
1626 1708 1707 1e-08 0
1627 1628 1708 1e-08 0
1628 1709 1708 1e-08 0
1628 1629 1710 1e-08 0
1628 1710 1709 1e-08 0
1629 1630 1710 1e-08 0
1630 1711 1710 1e-08 0
1630 1631 1712 1e-08 0
1630 1712 1711 1e-08 0
1631 1632 1712 1e-08 0
1632 1713 1712 1e-08 0
1632 1633 1714 1e-08 0
1632 1714 1713 1e-08 0
1633 1634 1714 1e-08 0
1634 1715 1714 1e-08 0
1634 1635 1716 1e-08 0
1634 1716 1715 1e-08 0
1635 1636 1716 1e-08 0
1636 1717 1716 1e-08 0
1636 1637 1718 1e-08 0
1636 1718 1717 1e-08 0
1637 1638 1718 1e-08 0
1638 1719 1718 1e-08 0
1638 1639 1720 1e-08 0
1638 1720 1719 1e-08 0
1639 1640 1720 1e-08 0
1640 1721 1720 1e-08 0
1640 1641 1722 1e-08 0
1640 1722 1721 1e-08 0
1641 1642 1722 1e-08 0
1642 1723 1722 1e-08 0
1642 1643 1724 1e-08 0
1642 1724 1723 1e-08 0
1643 1644 1724 1e-08 0
1644 1725 1724 1e-08 0
1644 1645 1726 1e-08 0
1644 1726 1725 1e-08 0
1645 1646 1726 1e-08 0
1646 1727 1726 1e-08 0
1646 1647 1728 1e-08 0
1646 1728 1727 1e-08 0
1647 1648 1728 1e-08 0
1648 1729 1728 1e-08 0
1648 1649 1730 1e-08 0
1648 1730 1729 1e-08 0
1649 1650 1730 1e-08 0
1650 1731 1730 1e-08 0
1650 1651 1732 1e-08 0
1650 1732 1731 1e-08 0
1651 1652 1732 1e-08 0
1652 1733 1732 1e-08 0
1652 1653 1734 1e-08 0
1652 1734 1733 1e-08 0
1653 1654 1734 1e-08 0
1654 1735 1734 1e-08 0
1654 1655 1736 1e-08 0
1654 1736 1735 1e-08 0
1655 1656 1736 1e-08 0
1656 1737 1736 1e-08 0
1656 1657 1738 1e-08 0
1656 1738 1737 1e-08 0
1657 1658 1738 1e-08 0
1658 1739 1738 1e-08 0
1658 1659 1740 1e-08 0
1658 1740 1739 1e-08 0
1659 1660 1740 1e-08 0
1660 1741 1740 1e-08 0
1660 1661 1742 1e-08 0
1660 1742 1741 1e-08 0
1661 1662 1742 1e-08 0
1662 1743 1742 1e-08 0
1662 1663 1744 1e-08 0
1662 1744 1743 1e-08 0
1663 1664 1744 1e-08 0
1664 1745 1744 1e-08 0
1664 1665 1746 1e-08 0
1664 1746 1745 1e-08 0
1665 1666 1746 1e-08 0
1666 1747 1746 1e-08 0
1666 1667 1748 1e-08 0
1666 1748 1747 1e-08 0
1667 1668 1748 1e-08 0
1668 1749 1748 1e-08 0
1668 1669 1750 1e-08 0
1668 1750 1749 1e-08 0
1669 1670 1750 1e-08 0
1670 1751 1750 1e-08 0
1670 1671 1752 1e-08 0
1670 1752 1751 1e-08 0
1671 1672 1752 1e-08 0
1672 1753 1752 1e-08 0
1672 1673 1754 1e-08 0
1672 1754 1753 1e-08 0
1673 1674 1754 1e-08 0
1674 1755 1754 1e-08 0
1674 1675 1756 1e-08 0
1674 1756 1755 1e-08 0
1675 1676 1756 1e-08 0
1676 1757 1756 1e-08 0
1676 1677 1758 1e-08 0
1676 1758 1757 1e-08 0
1677 1678 1758 1e-08 0
1678 1759 1758 1e-08 0
1678 1679 1760 1e-08 0
1678 1760 1759 1e-08 0
1679 1680 1760 1e-08 0
1680 1761 1760 1e-08 0
1680 1681 1762 1e-08 0
1680 1762 1761 1e-08 0
1681 1682 1762 1e-08 0
1682 1763 1762 1e-08 0
1682 1683 1764 1e-08 0
1682 1764 1763 1e-08 0
1683 1684 1764 1e-08 0
1684 1765 1764 1e-08 0
1684 1685 1766 1e-08 0
1684 1766 1765 1e-08 0
1685 1686 1766 1e-08 0
1686 1767 1766 1e-08 0
1686 1687 1768 1e-08 0
1686 1768 1767 1e-08 0
1687 1688 1768 1e-08 0
1688 1769 1768 1e-08 0
1688 1689 1770 1e-08 0
1688 1770 1769 1e-08 0
1689 1690 1770 1e-08 0
1690 1771 1770 1e-08 0
1690 1691 1772 1e-08 0
1690 1772 1771 1e-08 0
1691 1692 1772 1e-08 0
1692 1773 1772 1e-08 0
1692 1693 1774 1e-08 0
1692 1774 1773 1e-08 0
1693 1694 1774 1e-08 0
1694 1775 1774 1e-08 0
1694 1695 1776 1e-08 0
1694 1776 1775 1e-08 0
1695 1696 1776 1e-08 0
1696 1777 1776 1e-08 0
1696 1697 1778 1e-08 0
1696 1778 1777 1e-08 0
1697 1698 1778 1e-08 0
1698 1779 1778 1e-08 0
1698 1699 1780 1e-08 0
1698 1780 1779 1e-08 0
1699 1700 1780 1e-08 0
1700 1781 1780 1e-08 0
1701 1702 1782 1e-08 0
1702 1783 1782 1e-08 0
1702 1703 1784 1e-08 0
1702 1784 1783 1e-08 0
1703 1704 1784 1e-08 0
1704 1785 1784 1e-08 0
1704 1705 1786 1e-08 0
1704 1786 1785 1e-08 0
1705 1706 1786 1e-08 0
1706 1787 1786 1e-08 0
1706 1707 1788 1e-08 0
1706 1788 1787 1e-08 0
1707 1708 1788 1e-08 0
1708 1789 1788 1e-08 0
1708 1709 1790 1e-08 0
1708 1790 1789 1e-08 0
1709 1710 1790 1e-08 0
1710 1791 1790 1e-08 0
1710 1711 1792 1e-08 0
1710 1792 1791 1e-08 0
1711 1712 1792 1e-08 0
1712 1793 1792 1e-08 0
1712 1713 1794 1e-08 0
1712 1794 1793 1e-08 0
1713 1714 1794 1e-08 0
1714 1795 1794 1e-08 0
1714 1715 1796 1e-08 0
1714 1796 1795 1e-08 0
1715 1716 1796 1e-08 0
1716 1797 1796 1e-08 0
1716 1717 1798 1e-08 0
1716 1798 1797 1e-08 0
1717 1718 1798 1e-08 0
1718 1799 1798 1e-08 0
1718 1719 1800 1e-08 0
1718 1800 1799 1e-08 0
1719 1720 1800 1e-08 0
1720 1801 1800 1e-08 0
1720 1721 1802 1e-08 0
1720 1802 1801 1e-08 0
1721 1722 1802 1e-08 0
1722 1803 1802 1e-08 0
1722 1723 1804 1e-08 0
1722 1804 1803 1e-08 0
1723 1724 1804 1e-08 0
1724 1805 1804 1e-08 0
1724 1725 1806 1e-08 0
1724 1806 1805 1e-08 0
1725 1726 1806 1e-08 0
1726 1807 1806 1e-08 0
1726 1727 1808 1e-08 0
1726 1808 1807 1e-08 0
1727 1728 1808 1e-08 0
1728 1809 1808 1e-08 0
1728 1729 1810 1e-08 0
1728 1810 1809 1e-08 0
1729 1730 1810 1e-08 0
1730 1811 1810 1e-08 0
1730 1731 1812 1e-08 0
1730 1812 1811 1e-08 0
1731 1732 1812 1e-08 0
1732 1813 1812 1e-08 0
1732 1733 1814 1e-08 0
1732 1814 1813 1e-08 0
1733 1734 1814 1e-08 0
1734 1815 1814 1e-08 0
1734 1735 1816 1e-08 0
1734 1816 1815 1e-08 0
1735 1736 1816 1e-08 0
1736 1817 1816 1e-08 0
1736 1737 1818 1e-08 0
1736 1818 1817 1e-08 0
1737 1738 1818 1e-08 0
1738 1819 1818 1e-08 0
1738 1739 1820 1e-08 0
1738 1820 1819 1e-08 0
1739 1740 1820 1e-08 0
1740 1821 1820 1e-08 0
1740 1741 1822 1e-08 0
1740 1822 1821 1e-08 0
1741 1742 1822 1e-08 0
1742 1823 1822 1e-08 0
1742 1743 1824 1e-08 0
1742 1824 1823 1e-08 0
1743 1744 1824 1e-08 0
1744 1825 1824 1e-08 0
1744 1745 1826 1e-08 0
1744 1826 1825 1e-08 0
1745 1746 1826 1e-08 0
1746 1827 1826 1e-08 0
1746 1747 1828 1e-08 0
1746 1828 1827 1e-08 0
1747 1748 1828 1e-08 0
1748 1829 1828 1e-08 0
1748 1749 1830 1e-08 0
1748 1830 1829 1e-08 0
1749 1750 1830 1e-08 0
1750 1831 1830 1e-08 0
1750 1751 1832 1e-08 0
1750 1832 1831 1e-08 0
1751 1752 1832 1e-08 0
1752 1833 1832 1e-08 0
1752 1753 1834 1e-08 0
1752 1834 1833 1e-08 0
1753 1754 1834 1e-08 0
1754 1835 1834 1e-08 0
1754 1755 1836 1e-08 0
1754 1836 1835 1e-08 0
1755 1756 1836 1e-08 0
1756 1837 1836 1e-08 0
1756 1757 1838 1e-08 0
1756 1838 1837 1e-08 0
1757 1758 1838 1e-08 0
1758 1839 1838 1e-08 0
1758 1759 1840 1e-08 0
1758 1840 1839 1e-08 0
1759 1760 1840 1e-08 0
1760 1841 1840 1e-08 0
1760 1761 1842 1e-08 0
1760 1842 1841 1e-08 0
1761 1762 1842 1e-08 0
1762 1843 1842 1e-08 0
1762 1763 1844 1e-08 0
1762 1844 1843 1e-08 0
1763 1764 1844 1e-08 0
1764 1845 1844 1e-08 0
1764 1765 1846 1e-08 0
1764 1846 1845 1e-08 0
1765 1766 1846 1e-08 0
1766 1847 1846 1e-08 0
1766 1767 1848 1e-08 0
1766 1848 1847 1e-08 0
1767 1768 1848 1e-08 0
1768 1849 1848 1e-08 0
1768 1769 1850 1e-08 0
1768 1850 1849 1e-08 0
1769 1770 1850 1e-08 0
1770 1851 1850 1e-08 0
1770 1771 1852 1e-08 0
1770 1852 1851 1e-08 0
1771 1772 1852 1e-08 0
1772 1853 1852 1e-08 0
1772 1773 1854 1e-08 0
1772 1854 1853 1e-08 0
1773 1774 1854 1e-08 0
1774 1855 1854 1e-08 0
1774 1775 1856 1e-08 0
1774 1856 1855 1e-08 0
1775 1776 1856 1e-08 0
1776 1857 1856 1e-08 0
1776 1777 1858 1e-08 0
1776 1858 1857 1e-08 0
1777 1778 1858 1e-08 0
1778 1859 1858 1e-08 0
1778 1779 1860 1e-08 0
1778 1860 1859 1e-08 0
1779 1780 1860 1e-08 0
1780 1861 1860 1e-08 0
1780 1781 1862 1e-08 0
1780 1862 1861 1e-08 0
1782 1783 1864 1e-08 0
1782 1864 1863 1e-08 0
1783 1784 1864 1e-08 0
1784 1865 1864 1e-08 0
1784 1785 1866 1e-08 0
1784 1866 1865 1e-08 0
1785 1786 1866 1e-08 0
1786 1867 1866 1e-08 0
1786 1787 1868 1e-08 0
1786 1868 1867 1e-08 0
1787 1788 1868 1e-08 0
1788 1869 1868 1e-08 0
1788 1789 1870 1e-08 0
1788 1870 1869 1e-08 0
1789 1790 1870 1e-08 0
1790 1871 1870 1e-08 0
1790 1791 1872 1e-08 0
1790 1872 1871 1e-08 0
1791 1792 1872 1e-08 0
1792 1873 1872 1e-08 0
1792 1793 1874 1e-08 0
1792 1874 1873 1e-08 0
1793 1794 1874 1e-08 0
1794 1875 1874 1e-08 0
1794 1795 1876 1e-08 0
1794 1876 1875 1e-08 0
1795 1796 1876 1e-08 0
1796 1877 1876 1e-08 0
1796 1797 1878 1e-08 0
1796 1878 1877 1e-08 0
1797 1798 1878 1e-08 0
1798 1879 1878 1e-08 0
1798 1799 1880 1e-08 0
1798 1880 1879 1e-08 0
1799 1800 1880 1e-08 0
1800 1881 1880 1e-08 0
1800 1801 1882 1e-08 0
1800 1882 1881 1e-08 0
1801 1802 1882 1e-08 0
1802 1883 1882 1e-08 0
1802 1803 1884 1e-08 0
1802 1884 1883 1e-08 0
1803 1804 1884 1e-08 0
1804 1885 1884 1e-08 0
1804 1805 1886 1e-08 0
1804 1886 1885 1e-08 0
1805 1806 1886 1e-08 0
1806 1887 1886 1e-08 0
1806 1807 1888 1e-08 0
1806 1888 1887 1e-08 0
1807 1808 1888 1e-08 0
1808 1889 1888 1e-08 0
1808 1809 1890 1e-08 0
1808 1890 1889 1e-08 0
1809 1810 1890 1e-08 0
1810 1891 1890 1e-08 0
1810 1811 1892 1e-08 0
1810 1892 1891 1e-08 0
1811 1812 1892 1e-08 0
1812 1893 1892 1e-08 0
1812 1813 1894 1e-08 0
1812 1894 1893 1e-08 0
1813 1814 1894 1e-08 0
1814 1895 1894 1e-08 0
1814 1815 1896 1e-08 0
1814 1896 1895 1e-08 0
1815 1816 1896 1e-08 0
1816 1897 1896 1e-08 0
1816 1817 1898 1e-08 0
1816 1898 1897 1e-08 0
1817 1818 1898 1e-08 0
1818 1899 1898 1e-08 0
1818 1819 1900 1e-08 0
1818 1900 1899 1e-08 0
1819 1820 1900 1e-08 0
1820 1901 1900 1e-08 0
1820 1821 1902 1e-08 0
1820 1902 1901 1e-08 0
1821 1822 1902 1e-08 0
1822 1903 1902 1e-08 0
1822 1823 1904 1e-08 0
1822 1904 1903 1e-08 0
1823 1824 1904 1e-08 0
1824 1905 1904 1e-08 0
1824 1825 1906 1e-08 0
1824 1906 1905 1e-08 0
1825 1826 1906 1e-08 0
1826 1907 1906 1e-08 0
1826 1827 1908 1e-08 0
1826 1908 1907 1e-08 0
1827 1828 1908 1e-08 0
1828 1909 1908 1e-08 0
1828 1829 1910 1e-08 0
1828 1910 1909 1e-08 0
1829 1830 1910 1e-08 0
1830 1911 1910 1e-08 0
1830 1831 1912 1e-08 0
1830 1912 1911 1e-08 0
1831 1832 1912 1e-08 0
1832 1913 1912 1e-08 0
1832 1833 1914 1e-08 0
1832 1914 1913 1e-08 0
1833 1834 1914 1e-08 0
1834 1915 1914 1e-08 0
1834 1835 1916 1e-08 0
1834 1916 1915 1e-08 0
1835 1836 1916 1e-08 0
1836 1917 1916 1e-08 0
1836 1837 1918 1e-08 0
1836 1918 1917 1e-08 0
1837 1838 1918 1e-08 0
1838 1919 1918 1e-08 0
1838 1839 1920 1e-08 0
1838 1920 1919 1e-08 0
1839 1840 1920 1e-08 0
1840 1921 1920 1e-08 0
1840 1841 1922 1e-08 0
1840 1922 1921 1e-08 0
1841 1842 1922 1e-08 0
1842 1923 1922 1e-08 0
1842 1843 1924 1e-08 0
1842 1924 1923 1e-08 0
1843 1844 1924 1e-08 0
1844 1925 1924 1e-08 0
1844 1845 1926 1e-08 0
1844 1926 1925 1e-08 0
1845 1846 1926 1e-08 0
1846 1927 1926 1e-08 0
1846 1847 1928 1e-08 0
1846 1928 1927 1e-08 0
1847 1848 1928 1e-08 0
1848 1929 1928 1e-08 0
1848 1849 1930 1e-08 0
1848 1930 1929 1e-08 0
1849 1850 1930 1e-08 0
1850 1931 1930 1e-08 0
1850 1851 1932 1e-08 0
1850 1932 1931 1e-08 0
1851 1852 1932 1e-08 0
1852 1933 1932 1e-08 0
1852 1853 1934 1e-08 0
1852 1934 1933 1e-08 0
1853 1854 1934 1e-08 0
1854 1935 1934 1e-08 0
1854 1855 1936 1e-08 0
1854 1936 1935 1e-08 0
1855 1856 1936 1e-08 0
1856 1937 1936 1e-08 0
1856 1857 1938 1e-08 0
1856 1938 1937 1e-08 0
1857 1858 1938 1e-08 0
1858 1939 1938 1e-08 0
1858 1859 1940 1e-08 0
1858 1940 1939 1e-08 0
1859 1860 1940 1e-08 0
1860 1941 1940 1e-08 0
1860 1861 1942 1e-08 0
1860 1942 1941 1e-08 0
1861 1862 1942 1e-08 0
1862 1943 1942 1e-08 0
1863 1864 1944 1e-08 0
1864 1945 1944 1e-08 0
1864 1865 1946 1e-08 0
1864 1946 1945 1e-08 0
1865 1866 1946 1e-08 0
1866 1947 1946 1e-08 0
1866 1867 1948 1e-08 0
1866 1948 1947 1e-08 0
1867 1868 1948 1e-08 0
1868 1949 1948 1e-08 0
1868 1869 1950 1e-08 0
1868 1950 1949 1e-08 0
1869 1870 1950 1e-08 0
1870 1951 1950 1e-08 0
1870 1871 1952 1e-08 0
1870 1952 1951 1e-08 0
1871 1872 1952 1e-08 0
1872 1953 1952 1e-08 0
1872 1873 1954 1e-08 0
1872 1954 1953 1e-08 0
1873 1874 1954 1e-08 0
1874 1955 1954 1e-08 0
1874 1875 1956 1e-08 0
1874 1956 1955 1e-08 0
1875 1876 1956 1e-08 0
1876 1957 1956 1e-08 0
1876 1877 1958 1e-08 0
1876 1958 1957 1e-08 0
1877 1878 1958 1e-08 0
1878 1959 1958 1e-08 0
1878 1879 1960 1e-08 0
1878 1960 1959 1e-08 0
1879 1880 1960 1e-08 0
1880 1961 1960 1e-08 0
1880 1881 1962 1e-08 0
1880 1962 1961 1e-08 0
1881 1882 1962 1e-08 0
1882 1963 1962 1e-08 0
1882 1883 1964 1e-08 0
1882 1964 1963 1e-08 0
1883 1884 1964 1e-08 0
1884 1965 1964 1e-08 0
1884 1885 1966 1e-08 0
1884 1966 1965 1e-08 0
1885 1886 1966 1e-08 0
1886 1967 1966 1e-08 0
1886 1887 1968 1e-08 0
1886 1968 1967 1e-08 0
1887 1888 1968 1e-08 0
1888 1969 1968 1e-08 0
1888 1889 1970 1e-08 0
1888 1970 1969 1e-08 0
1889 1890 1970 1e-08 0
1890 1971 1970 1e-08 0
1890 1891 1972 1e-08 0
1890 1972 1971 1e-08 0
1891 1892 1972 1e-08 0
1892 1973 1972 1e-08 0
1892 1893 1974 1e-08 0
1892 1974 1973 1e-08 0
1893 1894 1974 1e-08 0
1894 1975 1974 1e-08 0
1894 1895 1976 1e-08 0
1894 1976 1975 1e-08 0
1895 1896 1976 1e-08 0
1896 1977 1976 1e-08 0
1896 1897 1978 1e-08 0
1896 1978 1977 1e-08 0
1897 1898 1978 1e-08 0
1898 1979 1978 1e-08 0
1898 1899 1980 1e-08 0
1898 1980 1979 1e-08 0
1899 1900 1980 1e-08 0
1900 1981 1980 1e-08 0
1900 1901 1982 1e-08 0
1900 1982 1981 1e-08 0
1901 1902 1982 1e-08 0
1902 1983 1982 1e-08 0
1902 1903 1984 1e-08 0
1902 1984 1983 1e-08 0
1903 1904 1984 1e-08 0
1904 1985 1984 1e-08 0
1904 1905 1986 1e-08 0
1904 1986 1985 1e-08 0
1905 1906 1986 1e-08 0
1906 1987 1986 1e-08 0
1906 1907 1988 1e-08 0
1906 1988 1987 1e-08 0
1907 1908 1988 1e-08 0
1908 1989 1988 1e-08 0
1908 1909 1990 1e-08 0
1908 1990 1989 1e-08 0
1909 1910 1990 1e-08 0
1910 1991 1990 1e-08 0
1910 1911 1992 1e-08 0
1910 1992 1991 1e-08 0
1911 1912 1992 1e-08 0
1912 1993 1992 1e-08 0
1912 1913 1994 1e-08 0
1912 1994 1993 1e-08 0
1913 1914 1994 1e-08 0
1914 1995 1994 1e-08 0
1914 1915 1996 1e-08 0
1914 1996 1995 1e-08 0
1915 1916 1996 1e-08 0
1916 1997 1996 1e-08 0
1916 1917 1998 1e-08 0
1916 1998 1997 1e-08 0
1917 1918 1998 1e-08 0
1918 1999 1998 1e-08 0
1918 1919 2000 1e-08 0
1918 2000 1999 1e-08 0
1919 1920 2000 1e-08 0
1920 2001 2000 1e-08 0
1920 1921 2002 1e-08 0
1920 2002 2001 1e-08 0
1921 1922 2002 1e-08 0
1922 2003 2002 1e-08 0
1922 1923 2004 1e-08 0
1922 2004 2003 1e-08 0
1923 1924 2004 1e-08 0
1924 2005 2004 1e-08 0
1924 1925 2006 1e-08 0
1924 2006 2005 1e-08 0
1925 1926 2006 1e-08 0
1926 2007 2006 1e-08 0
1926 1927 2008 1e-08 0
1926 2008 2007 1e-08 0
1927 1928 2008 1e-08 0
1928 2009 2008 1e-08 0
1928 1929 2010 1e-08 0
1928 2010 2009 1e-08 0
1929 1930 2010 1e-08 0
1930 2011 2010 1e-08 0
1930 1931 2012 1e-08 0
1930 2012 2011 1e-08 0
1931 1932 2012 1e-08 0
1932 2013 2012 1e-08 0
1932 1933 2014 1e-08 0
1932 2014 2013 1e-08 0
1933 1934 2014 1e-08 0
1934 2015 2014 1e-08 0
1934 1935 2016 1e-08 0
1934 2016 2015 1e-08 0
1935 1936 2016 1e-08 0
1936 2017 2016 1e-08 0
1936 1937 2018 1e-08 0
1936 2018 2017 1e-08 0
1937 1938 2018 1e-08 0
1938 2019 2018 1e-08 0
1938 1939 2020 1e-08 0
1938 2020 2019 1e-08 0
1939 1940 2020 1e-08 0
1940 2021 2020 1e-08 0
1940 1941 2022 1e-08 0
1940 2022 2021 1e-08 0
1941 1942 2022 1e-08 0
1942 2023 2022 1e-08 0
1942 1943 2024 1e-08 0
1942 2024 2023 1e-08 0
1944 1945 2026 1e-08 0
1944 2026 2025 1e-08 0
1945 1946 2026 1e-08 0
1946 2027 2026 1e-08 0
1946 1947 2028 1e-08 0
1946 2028 2027 1e-08 0
1947 1948 2028 1e-08 0
1948 2029 2028 1e-08 0
1948 1949 2030 1e-08 0
1948 2030 2029 1e-08 0
1949 1950 2030 1e-08 0
1950 2031 2030 1e-08 0
1950 1951 2032 1e-08 0
1950 2032 2031 1e-08 0
1951 1952 2032 1e-08 0
1952 2033 2032 1e-08 0
1952 1953 2034 1e-08 0
1952 2034 2033 1e-08 0
1953 1954 2034 1e-08 0
1954 2035 2034 1e-08 0
1954 1955 2036 1e-08 0
1954 2036 2035 1e-08 0
1955 1956 2036 1e-08 0
1956 2037 2036 1e-08 0
1956 1957 2038 1e-08 0
1956 2038 2037 1e-08 0
1957 1958 2038 1e-08 0
1958 2039 2038 1e-08 0
1958 1959 2040 1e-08 0
1958 2040 2039 1e-08 0
1959 1960 2040 1e-08 0
1960 2041 2040 1e-08 0
1960 1961 2042 1e-08 0
1960 2042 2041 1e-08 0
1961 1962 2042 1e-08 0
1962 2043 2042 1e-08 0
1962 1963 2044 1e-08 0
1962 2044 2043 1e-08 0
1963 1964 2044 1e-08 0
1964 2045 2044 1e-08 0
1964 1965 2046 1e-08 0
1964 2046 2045 1e-08 0
1965 1966 2046 1e-08 0
1966 2047 2046 1e-08 0
1966 1967 2048 1e-08 0
1966 2048 2047 1e-08 0
1967 1968 2048 1e-08 0
1968 2049 2048 1e-08 0
1968 1969 2050 1e-08 0
1968 2050 2049 1e-08 0
1969 1970 2050 1e-08 0
1970 2051 2050 1e-08 0
1970 1971 2052 1e-08 0
1970 2052 2051 1e-08 0
1971 1972 2052 1e-08 0
1972 2053 2052 1e-08 0
1972 1973 2054 1e-08 0
1972 2054 2053 1e-08 0
1973 1974 2054 1e-08 0
1974 2055 2054 1e-08 0
1974 1975 2056 1e-08 0
1974 2056 2055 1e-08 0
1975 1976 2056 1e-08 0
1976 2057 2056 1e-08 0
1976 1977 2058 1e-08 0
1976 2058 2057 1e-08 0
1977 1978 2058 1e-08 0
1978 2059 2058 1e-08 0
1978 1979 2060 1e-08 0
1978 2060 2059 1e-08 0
1979 1980 2060 1e-08 0
1980 2061 2060 1e-08 0.00117741
1980 1981 2062 1e-08 0
1980 2062 2061 1e-08 0.00443262
1981 1982 2062 1e-08 0.00199121
1982 2063 2062 1e-08 0.00931543
1982 1983 2064 1e-08 0.00524642
1982 2064 2063 1e-08 0.010943
1983 1984 2064 1e-08 0.00606022
1984 2065 2064 1e-08 0.0125706
1984 1985 2066 1e-08 0.00606022
1984 2066 2065 1e-08 0.0125706
1985 1986 2066 1e-08 0.00524642
1986 2067 2066 1e-08 0.010943
1986 1987 2068 1e-08 0.00199121
1986 2068 2067 1e-08 0.00931543
1987 1988 2068 1e-08 0
1988 2069 2068 1e-08 0.00443262
1988 1989 2070 1e-08 0
1988 2070 2069 1e-08 0.00117741
1989 1990 2070 1e-08 0
1990 2071 2070 1e-08 0
1990 1991 2072 1e-08 0
1990 2072 2071 1e-08 0
1991 1992 2072 1e-08 0
1992 2073 2072 1e-08 0
1992 1993 2074 1e-08 0
1992 2074 2073 1e-08 0
1993 1994 2074 1e-08 0
1994 2075 2074 1e-08 0
1994 1995 2076 1e-08 0
1994 2076 2075 1e-08 0
1995 1996 2076 1e-08 0
1996 2077 2076 1e-08 0
1996 1997 2078 1e-08 0
1996 2078 2077 1e-08 0
1997 1998 2078 1e-08 0
1998 2079 2078 1e-08 0
1998 1999 2080 1e-08 0
1998 2080 2079 1e-08 0
1999 2000 2080 1e-08 0
2000 2081 2080 1e-08 0
2000 2001 2082 1e-08 0
2000 2082 2081 1e-08 0
2001 2002 2082 1e-08 0
2002 2083 2082 1e-08 0
2002 2003 2084 1e-08 0
2002 2084 2083 1e-08 0
2003 2004 2084 1e-08 0
2004 2085 2084 1e-08 0
2004 2005 2086 1e-08 0
2004 2086 2085 1e-08 0
2005 2006 2086 1e-08 0
2006 2087 2086 1e-08 0
2006 2007 2088 1e-08 0
2006 2088 2087 1e-08 0
2007 2008 2088 1e-08 0
2008 2089 2088 1e-08 0
2008 2009 2090 1e-08 0
2008 2090 2089 1e-08 0
2009 2010 2090 1e-08 0
2010 2091 2090 1e-08 0
2010 2011 2092 1e-08 0
2010 2092 2091 1e-08 0
2011 2012 2092 1e-08 0
2012 2093 2092 1e-08 0
2012 2013 2094 1e-08 0
2012 2094 2093 1e-08 0
2013 2014 2094 1e-08 0
2014 2095 2094 1e-08 0
2014 2015 2096 1e-08 0
2014 2096 2095 1e-08 0
2015 2016 2096 1e-08 0
2016 2097 2096 1e-08 0
2016 2017 2098 1e-08 0
2016 2098 2097 1e-08 0
2017 2018 2098 1e-08 0
2018 2099 2098 1e-08 0
2018 2019 2100 1e-08 0
2018 2100 2099 1e-08 0
2019 2020 2100 1e-08 0
2020 2101 2100 1e-08 0
2020 2021 2102 1e-08 0
2020 2102 2101 1e-08 0
2021 2022 2102 1e-08 0
2022 2103 2102 1e-08 0
2022 2023 2104 1e-08 0
2022 2104 2103 1e-08 0
2023 2024 2104 1e-08 0
2024 2105 2104 1e-08 0
2025 2026 2106 1e-08 0
2026 2107 2106 1e-08 0
2026 2027 2108 1e-08 0
2026 2108 2107 1e-08 0
2027 2028 2108 1e-08 0
2028 2109 2108 1e-08 0
2028 2029 2110 1e-08 0
2028 2110 2109 1e-08 0
2029 2030 2110 1e-08 0
2030 2111 2110 1e-08 0
2030 2031 2112 1e-08 0
2030 2112 2111 1e-08 0
2031 2032 2112 1e-08 0
2032 2113 2112 1e-08 0
2032 2033 2114 1e-08 0
2032 2114 2113 1e-08 0
2033 2034 2114 1e-08 0
2034 2115 2114 1e-08 0
2034 2035 2116 1e-08 0
2034 2116 2115 1e-08 0
2035 2036 2116 1e-08 0
2036 2117 2116 1e-08 0
2036 2037 2118 1e-08 0
2036 2118 2117 1e-08 0
2037 2038 2118 1e-08 0
2038 2119 2118 1e-08 0
2038 2039 2120 1e-08 0
2038 2120 2119 1e-08 0
2039 2040 2120 1e-08 0
2040 2121 2120 1e-08 0
2040 2041 2122 1e-08 0
2040 2122 2121 1e-08 0
2041 2042 2122 1e-08 0
2042 2123 2122 1e-08 0
2042 2043 2124 1e-08 0
2042 2124 2123 1e-08 0
2043 2044 2124 1e-08 0
2044 2125 2124 1e-08 0
2044 2045 2126 1e-08 0
2044 2126 2125 1e-08 0
2045 2046 2126 1e-08 0
2046 2127 2126 1e-08 0
2046 2047 2128 1e-08 0
2046 2128 2127 1e-08 0
2047 2048 2128 1e-08 0
2048 2129 2128 1e-08 0
2048 2049 2130 1e-08 0
2048 2130 2129 1e-08 0
2049 2050 2130 1e-08 0
2050 2131 2130 1e-08 0
2050 2051 2132 1e-08 0
2050 2132 2131 1e-08 0
2051 2052 2132 1e-08 0
2052 2133 2132 1e-08 0
2052 2053 2134 1e-08 0
2052 2134 2133 1e-08 0
2053 2054 2134 1e-08 0
2054 2135 2134 1e-08 0
2054 2055 2136 1e-08 0
2054 2136 2135 1e-08 0
2055 2056 2136 1e-08 0
2056 2137 2136 1e-08 0
2056 2057 2138 1e-08 0
2056 2138 2137 1e-08 0
2057 2058 2138 1e-08 0
2058 2139 2138 1e-08 0
2058 2059 2140 1e-08 0.000363607
2058 2140 2139 1e-08 0.00361882
2059 2060 2140 1e-08 0.00524642
2060 2141 2140 1e-08 0.0133844
2060 2061 2142 1e-08 0.0133844
2060 2142 2141 1e-08 0.0174535
2061 2062 2142 1e-08 0.0166396
2062 2143 2142 1e-08 0.0239639
2062 2063 2144 1e-08 0.0215225
2062 2144 2143 1e-08 0.0264053
2063 2064 2144 1e-08 0.0231501
2064 2145 2144 1e-08 0.0296605
2064 2065 2146 1e-08 0.0247777
2064 2146 2145 1e-08 0.0304743
2065 2066 2146 1e-08 0.0247777
2066 2147 2146 1e-08 0.0304743
2066 2067 2148 1e-08 0.0231501
2066 2148 2147 1e-08 0.0296605
2067 2068 2148 1e-08 0.0215225
2068 2149 2148 1e-08 0.0264053
2068 2069 2150 1e-08 0.0166396
2068 2150 2149 1e-08 0.0239639
2069 2070 2150 1e-08 0.0133844
2070 2151 2150 1e-08 0.0174535
2070 2071 2152 1e-08 0.00524642
2070 2152 2151 1e-08 0.0133844
2071 2072 2152 1e-08 0.000363607
2072 2153 2152 1e-08 0.00361882
2072 2073 2154 1e-08 0
2072 2154 2153 1e-08 0
2073 2074 2154 1e-08 0
2074 2155 2154 1e-08 0
2074 2075 2156 1e-08 0
2074 2156 2155 1e-08 0
2075 2076 2156 1e-08 0
2076 2157 2156 1e-08 0
2076 2077 2158 1e-08 0
2076 2158 2157 1e-08 0
2077 2078 2158 1e-08 0
2078 2159 2158 1e-08 0
2078 2079 2160 1e-08 0
2078 2160 2159 1e-08 0
2079 2080 2160 1e-08 0
2080 2161 2160 1e-08 0
2080 2081 2162 1e-08 0
2080 2162 2161 1e-08 0
2081 2082 2162 1e-08 0
2082 2163 2162 1e-08 0
2082 2083 2164 1e-08 0
2082 2164 2163 1e-08 0
2083 2084 2164 1e-08 0
2084 2165 2164 1e-08 0
2084 2085 2166 1e-08 0
2084 2166 2165 1e-08 0
2085 2086 2166 1e-08 0
2086 2167 2166 1e-08 0
2086 2087 2168 1e-08 0
2086 2168 2167 1e-08 0
2087 2088 2168 1e-08 0
2088 2169 2168 1e-08 0
2088 2089 2170 1e-08 0
2088 2170 2169 1e-08 0
2089 2090 2170 1e-08 0
2090 2171 2170 1e-08 0
2090 2091 2172 1e-08 0
2090 2172 2171 1e-08 0
2091 2092 2172 1e-08 0
2092 2173 2172 1e-08 0
2092 2093 2174 1e-08 0
2092 2174 2173 1e-08 0
2093 2094 2174 1e-08 0
2094 2175 2174 1e-08 0
2094 2095 2176 1e-08 0
2094 2176 2175 1e-08 0
2095 2096 2176 1e-08 0
2096 2177 2176 1e-08 0
2096 2097 2178 1e-08 0
2096 2178 2177 1e-08 0
2097 2098 2178 1e-08 0
2098 2179 2178 1e-08 0
2098 2099 2180 1e-08 0
2098 2180 2179 1e-08 0
2099 2100 2180 1e-08 0
2100 2181 2180 1e-08 0
2100 2101 2182 1e-08 0
2100 2182 2181 1e-08 0
2101 2102 2182 1e-08 0
2102 2183 2182 1e-08 0
2102 2103 2184 1e-08 0
2102 2184 2183 1e-08 0
2103 2104 2184 1e-08 0
2104 2185 2184 1e-08 0
2104 2105 2186 1e-08 0
2104 2186 2185 1e-08 0
2106 2107 2188 1e-08 0
2106 2188 2187 1e-08 0
2107 2108 2188 1e-08 0
2108 2189 2188 1e-08 0
2108 2109 2190 1e-08 0
2108 2190 2189 1e-08 0
2109 2110 2190 1e-08 0
2110 2191 2190 1e-08 0
2110 2111 2192 1e-08 0
2110 2192 2191 1e-08 0
2111 2112 2192 1e-08 0
2112 2193 2192 1e-08 0
2112 2113 2194 1e-08 0
2112 2194 2193 1e-08 0
2113 2114 2194 1e-08 0
2114 2195 2194 1e-08 0
2114 2115 2196 1e-08 0
2114 2196 2195 1e-08 0
2115 2116 2196 1e-08 0
2116 2197 2196 1e-08 0
2116 2117 2198 1e-08 0
2116 2198 2197 1e-08 0
2117 2118 2198 1e-08 0
2118 2199 2198 1e-08 0
2118 2119 2200 1e-08 0
2118 2200 2199 1e-08 0
2119 2120 2200 1e-08 0
2120 2201 2200 1e-08 0
2120 2121 2202 1e-08 0
2120 2202 2201 1e-08 0
2121 2122 2202 1e-08 0
2122 2203 2202 1e-08 0
2122 2123 2204 1e-08 0
2122 2204 2203 1e-08 0
2123 2124 2204 1e-08 0
2124 2205 2204 1e-08 0
2124 2125 2206 1e-08 0
2124 2206 2205 1e-08 0
2125 2126 2206 1e-08 0
2126 2207 2206 1e-08 0
2126 2127 2208 1e-08 0
2126 2208 2207 1e-08 0
2127 2128 2208 1e-08 0
2128 2209 2208 1e-08 0
2128 2129 2210 1e-08 0
2128 2210 2209 1e-08 0
2129 2130 2210 1e-08 0
2130 2211 2210 1e-08 0
2130 2131 2212 1e-08 0
2130 2212 2211 1e-08 0
2131 2132 2212 1e-08 0
2132 2213 2212 1e-08 0
2132 2133 2214 1e-08 0
2132 2214 2213 1e-08 0
2133 2134 2214 1e-08 0
2134 2215 2214 1e-08 0
2134 2135 2216 1e-08 0
2134 2216 2215 1e-08 0
2135 2136 2216 1e-08 0
2136 2217 2216 1e-08 0
2136 2137 2218 1e-08 0
2136 2218 2217 1e-08 0
2137 2138 2218 1e-08 0
2138 2219 2218 1e-08 0.00524642
2138 2139 2220 1e-08 0.00931543
2138 2220 2219 1e-08 0.0117568
2139 2140 2220 1e-08 0.015012
2140 2221 2220 1e-08 0.0231501
2140 2141 2222 1e-08 0.0247777
2140 2222 2221 1e-08 0.0280329
2141 2142 2222 1e-08 0.0288467
2142 2223 2222 1e-08 0.0361709
2142 2143 2224 1e-08 0.0353571
2142 2224 2223 1e-08 0.0394261
2143 2144 2224 1e-08 0.0377985
2144 2225 2224 1e-08 0.0443089
2144 2145 2226 1e-08 0.0410537
2144 2226 2225 1e-08 0.0459365
2145 2146 2226 1e-08 0.0418675
2146 2227 2226 1e-08 0.0475641
2146 2147 2228 1e-08 0.0418675
2146 2228 2227 1e-08 0.0475641
2147 2148 2228 1e-08 0.0410537
2148 2229 2228 1e-08 0.0459365
2148 2149 2230 1e-08 0.0377985
2148 2230 2229 1e-08 0.0443089
2149 2150 2230 1e-08 0.0353571
2150 2231 2230 1e-08 0.0394261
2150 2151 2232 1e-08 0.0288467
2150 2232 2231 1e-08 0.0361709
2151 2152 2232 1e-08 0.0247777
2152 2233 2232 1e-08 0.0280329
2152 2153 2234 1e-08 0.015012
2152 2234 2233 1e-08 0.0231501
2153 2154 2234 1e-08 0.00931543
2154 2235 2234 1e-08 0.0117568
2154 2155 2236 1e-08 0
2154 2236 2235 1e-08 0.00524642
2155 2156 2236 1e-08 0
2156 2237 2236 1e-08 0
2156 2157 2238 1e-08 0
2156 2238 2237 1e-08 0
2157 2158 2238 1e-08 0
2158 2239 2238 1e-08 0
2158 2159 2240 1e-08 0
2158 2240 2239 1e-08 0
2159 2160 2240 1e-08 0
2160 2241 2240 1e-08 0
2160 2161 2242 1e-08 0
2160 2242 2241 1e-08 0
2161 2162 2242 1e-08 0
2162 2243 2242 1e-08 0
2162 2163 2244 1e-08 0
2162 2244 2243 1e-08 0
2163 2164 2244 1e-08 0
2164 2245 2244 1e-08 0
2164 2165 2246 1e-08 0
2164 2246 2245 1e-08 0
2165 2166 2246 1e-08 0
2166 2247 2246 1e-08 0
2166 2167 2248 1e-08 0
2166 2248 2247 1e-08 0
2167 2168 2248 1e-08 0
2168 2249 2248 1e-08 0
2168 2169 2250 1e-08 0
2168 2250 2249 1e-08 0
2169 2170 2250 1e-08 0
2170 2251 2250 1e-08 0
2170 2171 2252 1e-08 0
2170 2252 2251 1e-08 0
2171 2172 2252 1e-08 0
2172 2253 2252 1e-08 0
2172 2173 2254 1e-08 0
2172 2254 2253 1e-08 0
2173 2174 2254 1e-08 0
2174 2255 2254 1e-08 0
2174 2175 2256 1e-08 0
2174 2256 2255 1e-08 0
2175 2176 2256 1e-08 0
2176 2257 2256 1e-08 0
2176 2177 2258 1e-08 0
2176 2258 2257 1e-08 0
2177 2178 2258 1e-08 0
2178 2259 2258 1e-08 0
2178 2179 2260 1e-08 0
2178 2260 2259 1e-08 0
2179 2180 2260 1e-08 0
2180 2261 2260 1e-08 0
2180 2181 2262 1e-08 0
2180 2262 2261 1e-08 0
2181 2182 2262 1e-08 0
2182 2263 2262 1e-08 0
2182 2183 2264 1e-08 0
2182 2264 2263 1e-08 0
2183 2184 2264 1e-08 0
2184 2265 2264 1e-08 0
2184 2185 2266 1e-08 0
2184 2266 2265 1e-08 0
2185 2186 2266 1e-08 0
2186 2267 2266 1e-08 0
2187 2188 2268 1e-08 0
2188 2269 2268 1e-08 0
2188 2189 2270 1e-08 0
2188 2270 2269 1e-08 0
2189 2190 2270 1e-08 0
2190 2271 2270 1e-08 0
2190 2191 2272 1e-08 0
2190 2272 2271 1e-08 0
2191 2192 2272 1e-08 0
2192 2273 2272 1e-08 0
2192 2193 2274 1e-08 0
2192 2274 2273 1e-08 0
2193 2194 2274 1e-08 0
2194 2275 2274 1e-08 0
2194 2195 2276 1e-08 0
2194 2276 2275 1e-08 0
2195 2196 2276 1e-08 0
2196 2277 2276 1e-08 0
2196 2197 2278 1e-08 0
2196 2278 2277 1e-08 0
2197 2198 2278 1e-08 0
2198 2279 2278 1e-08 0
2198 2199 2280 1e-08 0
2198 2280 2279 1e-08 0
2199 2200 2280 1e-08 0
2200 2281 2280 1e-08 0
2200 2201 2282 1e-08 0
2200 2282 2281 1e-08 0
2201 2202 2282 1e-08 0
2202 2283 2282 1e-08 0
2202 2203 2284 1e-08 0
2202 2284 2283 1e-08 0
2203 2204 2284 1e-08 0
2204 2285 2284 1e-08 0
2204 2205 2286 1e-08 0
2204 2286 2285 1e-08 0
2205 2206 2286 1e-08 0
2206 2287 2286 1e-08 0
2206 2207 2288 1e-08 0
2206 2288 2287 1e-08 0
2207 2208 2288 1e-08 0
2208 2289 2288 1e-08 0
2208 2209 2290 1e-08 0
2208 2290 2289 1e-08 0
2209 2210 2290 1e-08 0
2210 2291 2290 1e-08 0
2210 2211 2292 1e-08 0
2210 2292 2291 1e-08 0
2211 2212 2292 1e-08 0
2212 2293 2292 1e-08 0
2212 2213 2294 1e-08 0
2212 2294 2293 1e-08 0
2213 2214 2294 1e-08 0
2214 2295 2294 1e-08 0
2214 2215 2296 1e-08 0
2214 2296 2295 1e-08 0
2215 2216 2296 1e-08 0
2216 2297 2296 1e-08 0
2216 2217 2298 1e-08 0
2216 2298 2297 1e-08 0
2217 2218 2298 1e-08 0.00117741
2218 2299 2298 1e-08 0.0101292
2218 2219 2300 1e-08 0.0158258
2218 2300 2299 1e-08 0.0174535
2219 2220 2300 1e-08 0.0223363
2220 2301 2300 1e-08 0.0304743
2220 2221 2302 1e-08 0.0337295
2220 2302 2301 1e-08 0.0361709
2221 2222 2302 1e-08 0.0386123
2222 2303 2302 1e-08 0.0459365
2222 2223 2304 1e-08 0.0467503
2222 2304 2303 1e-08 0.0500055
2223 2224 2304 1e-08 0.0500055
2224 2305 2304 1e-08 0.056516
2224 2225 2306 1e-08 0.0548883
2224 2306 2305 1e-08 0.0589574
2225 2226 2306 1e-08 0.056516
2226 2307 2306 1e-08 0.0622126
2226 2227 2308 1e-08 0.0581436
2226 2308 2307 1e-08 0.0630264
2227 2228 2308 1e-08 0.0581436
2228 2309 2308 1e-08 0.0630264
2228 2229 2310 1e-08 0.056516
2228 2310 2309 1e-08 0.0622126
2229 2230 2310 1e-08 0.0548883
2230 2311 2310 1e-08 0.0589574
2230 2231 2312 1e-08 0.0500055
2230 2312 2311 1e-08 0.056516
2231 2232 2312 1e-08 0.0467503
2232 2313 2312 1e-08 0.0500055
2232 2233 2314 1e-08 0.0386123
2232 2314 2313 1e-08 0.0459365
2233 2234 2314 1e-08 0.0337295
2234 2315 2314 1e-08 0.0361709
2234 2235 2316 1e-08 0.0223363
2234 2316 2315 1e-08 0.0304743
2235 2236 2316 1e-08 0.0158258
2236 2317 2316 1e-08 0.0174535
2236 2237 2318 1e-08 0.00117741
2236 2318 2317 1e-08 0.0101292
2237 2238 2318 1e-08 0
2238 2319 2318 1e-08 0
2238 2239 2320 1e-08 0
2238 2320 2319 1e-08 0
2239 2240 2320 1e-08 0
2240 2321 2320 1e-08 0
2240 2241 2322 1e-08 0
2240 2322 2321 1e-08 0
2241 2242 2322 1e-08 0
2242 2323 2322 1e-08 0
2242 2243 2324 1e-08 0
2242 2324 2323 1e-08 0
2243 2244 2324 1e-08 0
2244 2325 2324 1e-08 0
2244 2245 2326 1e-08 0
2244 2326 2325 1e-08 0
2245 2246 2326 1e-08 0
2246 2327 2326 1e-08 0
2246 2247 2328 1e-08 0
2246 2328 2327 1e-08 0
2247 2248 2328 1e-08 0
2248 2329 2328 1e-08 0
2248 2249 2330 1e-08 0
2248 2330 2329 1e-08 0
2249 2250 2330 1e-08 0
2250 2331 2330 1e-08 0
2250 2251 2332 1e-08 0
2250 2332 2331 1e-08 0
2251 2252 2332 1e-08 0
2252 2333 2332 1e-08 0
2252 2253 2334 1e-08 0
2252 2334 2333 1e-08 0
2253 2254 2334 1e-08 0
2254 2335 2334 1e-08 0
2254 2255 2336 1e-08 0
2254 2336 2335 1e-08 0
2255 2256 2336 1e-08 0
2256 2337 2336 1e-08 0
2256 2257 2338 1e-08 0
2256 2338 2337 1e-08 0
2257 2258 2338 1e-08 0
2258 2339 2338 1e-08 0
2258 2259 2340 1e-08 0
2258 2340 2339 1e-08 0
2259 2260 2340 1e-08 0
2260 2341 2340 1e-08 0
2260 2261 2342 1e-08 0
2260 2342 2341 1e-08 0
2261 2262 2342 1e-08 0
2262 2343 2342 1e-08 0
2262 2263 2344 1e-08 0
2262 2344 2343 1e-08 0
2263 2264 2344 1e-08 0
2264 2345 2344 1e-08 0
2264 2265 2346 1e-08 0
2264 2346 2345 1e-08 0
2265 2266 2346 1e-08 0
2266 2347 2346 1e-08 0
2266 2267 2348 1e-08 0
2266 2348 2347 1e-08 0
2268 2269 2350 1e-08 0
2268 2350 2349 1e-08 0
2269 2270 2350 1e-08 0
2270 2351 2350 1e-08 0
2270 2271 2352 1e-08 0
2270 2352 2351 1e-08 0
2271 2272 2352 1e-08 0
2272 2353 2352 1e-08 0
2272 2273 2354 1e-08 0
2272 2354 2353 1e-08 0
2273 2274 2354 1e-08 0
2274 2355 2354 1e-08 0
2274 2275 2356 1e-08 0
2274 2356 2355 1e-08 0
2275 2276 2356 1e-08 0
2276 2357 2356 1e-08 0
2276 2277 2358 1e-08 0
2276 2358 2357 1e-08 0
2277 2278 2358 1e-08 0
2278 2359 2358 1e-08 0
2278 2279 2360 1e-08 0
2278 2360 2359 1e-08 0
2279 2280 2360 1e-08 0
2280 2361 2360 1e-08 0
2280 2281 2362 1e-08 0
2280 2362 2361 1e-08 0
2281 2282 2362 1e-08 0
2282 2363 2362 1e-08 0
2282 2283 2364 1e-08 0
2282 2364 2363 1e-08 0
2283 2284 2364 1e-08 0
2284 2365 2364 1e-08 0
2284 2285 2366 1e-08 0
2284 2366 2365 1e-08 0
2285 2286 2366 1e-08 0
2286 2367 2366 1e-08 0
2286 2287 2368 1e-08 0
2286 2368 2367 1e-08 0
2287 2288 2368 1e-08 0
2288 2369 2368 1e-08 0
2288 2289 2370 1e-08 0
2288 2370 2369 1e-08 0
2289 2290 2370 1e-08 0
2290 2371 2370 1e-08 0
2290 2291 2372 1e-08 0
2290 2372 2371 1e-08 0
2291 2292 2372 1e-08 0
2292 2373 2372 1e-08 0
2292 2293 2374 1e-08 0
2292 2374 2373 1e-08 0
2293 2294 2374 1e-08 0
2294 2375 2374 1e-08 0
2294 2295 2376 1e-08 0
2294 2376 2375 1e-08 0
2295 2296 2376 1e-08 0
2296 2377 2376 1e-08 0
2296 2297 2378 1e-08 0
2296 2378 2377 1e-08 0
2297 2298 2378 1e-08 0.00361882
2298 2379 2378 1e-08 0.0125706
2298 2299 2380 1e-08 0.0198949
2298 2380 2379 1e-08 0.0207087
2299 2300 2380 1e-08 0.0272191
2300 2381 2380 1e-08 0.0353571
2300 2301 2382 1e-08 0.0402399
2300 2382 2381 1e-08 0.0418675
2301 2302 2382 1e-08 0.0459365
2302 2383 2382 1e-08 0.0532607
2302 2303 2384 1e-08 0.0557021
2302 2384 2383 1e-08 0.0581436
2303 2304 2384 1e-08 0.0597712
2304 2385 2384 1e-08 0.0662816
2304 2305 2386 1e-08 0.0662816
2304 2386 2385 1e-08 0.0695368
2305 2306 2386 1e-08 0.068723
2306 2387 2386 1e-08 0.0744196
2306 2307 2388 1e-08 0.0719782
2306 2388 2387 1e-08 0.0760472
2307 2308 2388 1e-08 0.072792
2308 2389 2388 1e-08 0.0776748
2308 2309 2390 1e-08 0.072792
2308 2390 2389 1e-08 0.0776748
2309 2310 2390 1e-08 0.0719782
2310 2391 2390 1e-08 0.0760472
2310 2311 2392 1e-08 0.068723
2310 2392 2391 1e-08 0.0744196
2311 2312 2392 1e-08 0.0662816
2312 2393 2392 1e-08 0.0695368
2312 2313 2394 1e-08 0.0597712
2312 2394 2393 1e-08 0.0662816
2313 2314 2394 1e-08 0.0557021
2314 2395 2394 1e-08 0.0581436
2314 2315 2396 1e-08 0.0459365
2314 2396 2395 1e-08 0.0532607
2315 2316 2396 1e-08 0.0402399
2316 2397 2396 1e-08 0.0418675
2316 2317 2398 1e-08 0.0272191
2316 2398 2397 1e-08 0.0353571
2317 2318 2398 1e-08 0.0198949
2318 2399 2398 1e-08 0.0207087
2318 2319 2400 1e-08 0.00361882
2318 2400 2399 1e-08 0.0125706
2319 2320 2400 1e-08 0
2320 2401 2400 1e-08 0
2320 2321 2402 1e-08 0
2320 2402 2401 1e-08 0
2321 2322 2402 1e-08 0
2322 2403 2402 1e-08 0
2322 2323 2404 1e-08 0
2322 2404 2403 1e-08 0
2323 2324 2404 1e-08 0
2324 2405 2404 1e-08 0
2324 2325 2406 1e-08 0
2324 2406 2405 1e-08 0
2325 2326 2406 1e-08 0
2326 2407 2406 1e-08 0
2326 2327 2408 1e-08 0
2326 2408 2407 1e-08 0
2327 2328 2408 1e-08 0
2328 2409 2408 1e-08 0
2328 2329 2410 1e-08 0
2328 2410 2409 1e-08 0
2329 2330 2410 1e-08 0
2330 2411 2410 1e-08 0
2330 2331 2412 1e-08 0
2330 2412 2411 1e-08 0
2331 2332 2412 1e-08 0
2332 2413 2412 1e-08 0
2332 2333 2414 1e-08 0
2332 2414 2413 1e-08 0
2333 2334 2414 1e-08 0
2334 2415 2414 1e-08 0
2334 2335 2416 1e-08 0
2334 2416 2415 1e-08 0
2335 2336 2416 1e-08 0
2336 2417 2416 1e-08 0
2336 2337 2418 1e-08 0
2336 2418 2417 1e-08 0
2337 2338 2418 1e-08 0
2338 2419 2418 1e-08 0
2338 2339 2420 1e-08 0
2338 2420 2419 1e-08 0
2339 2340 2420 1e-08 0
2340 2421 2420 1e-08 0
2340 2341 2422 1e-08 0
2340 2422 2421 1e-08 0
2341 2342 2422 1e-08 0
2342 2423 2422 1e-08 0
2342 2343 2424 1e-08 0
2342 2424 2423 1e-08 0
2343 2344 2424 1e-08 0
2344 2425 2424 1e-08 0
2344 2345 2426 1e-08 0
2344 2426 2425 1e-08 0
2345 2346 2426 1e-08 0
2346 2427 2426 1e-08 0
2346 2347 2428 1e-08 0
2346 2428 2427 1e-08 0
2347 2348 2428 1e-08 0
2348 2429 2428 1e-08 0
2349 2350 2430 1e-08 0
2350 2431 2430 1e-08 0
2350 2351 2432 1e-08 0
2350 2432 2431 1e-08 0
2351 2352 2432 1e-08 0
2352 2433 2432 1e-08 0
2352 2353 2434 1e-08 0
2352 2434 2433 1e-08 0
2353 2354 2434 1e-08 0
2354 2435 2434 1e-08 0
2354 2355 2436 1e-08 0
2354 2436 2435 1e-08 0
2355 2356 2436 1e-08 0
2356 2437 2436 1e-08 0
2356 2357 2438 1e-08 0
2356 2438 2437 1e-08 0
2357 2358 2438 1e-08 0
2358 2439 2438 1e-08 0
2358 2359 2440 1e-08 0
2358 2440 2439 1e-08 0
2359 2360 2440 1e-08 0
2360 2441 2440 1e-08 0
2360 2361 2442 1e-08 0
2360 2442 2441 1e-08 0
2361 2362 2442 1e-08 0
2362 2443 2442 1e-08 0
2362 2363 2444 1e-08 0
2362 2444 2443 1e-08 0
2363 2364 2444 1e-08 0
2364 2445 2444 1e-08 0
2364 2365 2446 1e-08 0
2364 2446 2445 1e-08 0
2365 2366 2446 1e-08 0
2366 2447 2446 1e-08 0
2366 2367 2448 1e-08 0
2366 2448 2447 1e-08 0
2367 2368 2448 1e-08 0
2368 2449 2448 1e-08 0
2368 2369 2450 1e-08 0
2368 2450 2449 1e-08 0
2369 2370 2450 1e-08 0
2370 2451 2450 1e-08 0
2370 2371 2452 1e-08 0
2370 2452 2451 1e-08 0
2371 2372 2452 1e-08 0
2372 2453 2452 1e-08 0
2372 2373 2454 1e-08 0
2372 2454 2453 1e-08 0
2373 2374 2454 1e-08 0
2374 2455 2454 1e-08 0
2374 2375 2456 1e-08 0
2374 2456 2455 1e-08 0
2375 2376 2456 1e-08 0
2376 2457 2456 1e-08 0
2376 2377 2458 1e-08 0
2376 2458 2457 1e-08 0
2377 2378 2458 1e-08 0.00361882
2378 2459 2458 1e-08 0.0125706
2378 2379 2460 1e-08 0.0215225
2378 2460 2459 1e-08 0.0215225
2379 2380 2460 1e-08 0.0296605
2380 2461 2460 1e-08 0.0377985
2380 2381 2462 1e-08 0.0443089
2380 2462 2461 1e-08 0.0451227
2381 2382 2462 1e-08 0.0508193
2382 2463 2462 1e-08 0.0581436
2382 2383 2464 1e-08 0.0622126
2382 2464 2463 1e-08 0.0638402
2383 2384 2464 1e-08 0.0670954
2384 2465 2464 1e-08 0.0736058
2384 2385 2466 1e-08 0.0752334
2384 2466 2465 1e-08 0.0776748
2385 2386 2466 1e-08 0.0784886
2386 2467 2466 1e-08 0.0841852
2386 2387 2468 1e-08 0.0833714
2386 2468 2467 1e-08 0.0866266
2387 2388 2468 1e-08 0.084999
2388 2469 2468 1e-08 0.0898818
2388 2389 2470 1e-08 0.0866266
2388 2470 2469 1e-08 0.0906956
2389 2390 2470 1e-08 0.0866266
2390 2471 2470 1e-08 0.0906956
2390 2391 2472 1e-08 0.084999
2390 2472 2471 1e-08 0.0898818
2391 2392 2472 1e-08 0.0833714
2392 2473 2472 1e-08 0.0866266
2392 2393 2474 1e-08 0.0784886
2392 2474 2473 1e-08 0.0841852
2393 2394 2474 1e-08 0.0752334
2394 2475 2474 1e-08 0.0776748
2394 2395 2476 1e-08 0.0670954
2394 2476 2475 1e-08 0.0736058
2395 2396 2476 1e-08 0.0622126
2396 2477 2476 1e-08 0.0638402
2396 2397 2478 1e-08 0.0508193
2396 2478 2477 1e-08 0.0581436
2397 2398 2478 1e-08 0.0443089
2398 2479 2478 1e-08 0.0451227
2398 2399 2480 1e-08 0.0296605
2398 2480 2479 1e-08 0.0377985
2399 2400 2480 1e-08 0.0215225
2400 2481 2480 1e-08 0.0215225
2400 2401 2482 1e-08 0.00361882
2400 2482 2481 1e-08 0.0125706
2401 2402 2482 1e-08 0
2402 2483 2482 1e-08 0
2402 2403 2484 1e-08 0
2402 2484 2483 1e-08 0
2403 2404 2484 1e-08 0
2404 2485 2484 1e-08 0
2404 2405 2486 1e-08 0
2404 2486 2485 1e-08 0
2405 2406 2486 1e-08 0
2406 2487 2486 1e-08 0
2406 2407 2488 1e-08 0
2406 2488 2487 1e-08 0
2407 2408 2488 1e-08 0
2408 2489 2488 1e-08 0
2408 2409 2490 1e-08 0
2408 2490 2489 1e-08 0
2409 2410 2490 1e-08 0
2410 2491 2490 1e-08 0
2410 2411 2492 1e-08 0
2410 2492 2491 1e-08 0
2411 2412 2492 1e-08 0
2412 2493 2492 1e-08 0
2412 2413 2494 1e-08 0
2412 2494 2493 1e-08 0
2413 2414 2494 1e-08 0
2414 2495 2494 1e-08 0
2414 2415 2496 1e-08 0
2414 2496 2495 1e-08 0
2415 2416 2496 1e-08 0
2416 2497 2496 1e-08 0
2416 2417 2498 1e-08 0
2416 2498 2497 1e-08 0
2417 2418 2498 1e-08 0
2418 2499 2498 1e-08 0
2418 2419 2500 1e-08 0
2418 2500 2499 1e-08 0
2419 2420 2500 1e-08 0
2420 2501 2500 1e-08 0
2420 2421 2502 1e-08 0
2420 2502 2501 1e-08 0
2421 2422 2502 1e-08 0
2422 2503 2502 1e-08 0
2422 2423 2504 1e-08 0
2422 2504 2503 1e-08 0
2423 2424 2504 1e-08 0
2424 2505 2504 1e-08 0
2424 2425 2506 1e-08 0
2424 2506 2505 1e-08 0
2425 2426 2506 1e-08 0
2426 2507 2506 1e-08 0
2426 2427 2508 1e-08 0
2426 2508 2507 1e-08 0
2427 2428 2508 1e-08 0
2428 2509 2508 1e-08 0
2428 2429 2510 1e-08 0
2428 2510 2509 1e-08 0
2430 2431 2512 1e-08 0
2430 2512 2511 1e-08 0
2431 2432 2512 1e-08 0
2432 2513 2512 1e-08 0
2432 2433 2514 1e-08 0
2432 2514 2513 1e-08 0
2433 2434 2514 1e-08 0
2434 2515 2514 1e-08 0
2434 2435 2516 1e-08 0
2434 2516 2515 1e-08 0
2435 2436 2516 1e-08 0
2436 2517 2516 1e-08 0
2436 2437 2518 1e-08 0
2436 2518 2517 1e-08 0
2437 2438 2518 1e-08 0
2438 2519 2518 1e-08 0
2438 2439 2520 1e-08 0
2438 2520 2519 1e-08 0
2439 2440 2520 1e-08 0
2440 2521 2520 1e-08 0
2440 2441 2522 1e-08 0
2440 2522 2521 1e-08 0
2441 2442 2522 1e-08 0
2442 2523 2522 1e-08 0
2442 2443 2524 1e-08 0
2442 2524 2523 1e-08 0
2443 2444 2524 1e-08 0
2444 2525 2524 1e-08 0
2444 2445 2526 1e-08 0
2444 2526 2525 1e-08 0
2445 2446 2526 1e-08 0
2446 2527 2526 1e-08 0
2446 2447 2528 1e-08 0
2446 2528 2527 1e-08 0
2447 2448 2528 1e-08 0
2448 2529 2528 1e-08 0
2448 2449 2530 1e-08 0
2448 2530 2529 1e-08 0
2449 2450 2530 1e-08 0
2450 2531 2530 1e-08 0
2450 2451 2532 1e-08 0
2450 2532 2531 1e-08 0
2451 2452 2532 1e-08 0
2452 2533 2532 1e-08 0
2452 2453 2534 1e-08 0
2452 2534 2533 1e-08 0
2453 2454 2534 1e-08 0
2454 2535 2534 1e-08 0
2454 2455 2536 1e-08 0
2454 2536 2535 1e-08 0
2455 2456 2536 1e-08 0
2456 2537 2536 1e-08 0
2456 2457 2538 1e-08 0
2456 2538 2537 1e-08 0
2457 2458 2538 1e-08 0.00117741
2458 2539 2538 1e-08 0.0101292
2458 2459 2540 1e-08 0.0207087
2458 2540 2539 1e-08 0.0198949
2459 2460 2540 1e-08 0.0296605
2460 2541 2540 1e-08 0.0377985
2460 2461 2542 1e-08 0.0459365
2460 2542 2541 1e-08 0.0459365
2461 2462 2542 1e-08 0.0532607
2462 2543 2542 1e-08 0.060585
2462 2463 2544 1e-08 0.0662816
2462 2544 2543 1e-08 0.0670954
2463 2464 2544 1e-08 0.0719782
2464 2545 2544 1e-08 0.0784886
2464 2465 2546 1e-08 0.0817438
2464 2546 2545 1e-08 0.0833714
2465 2466 2546 1e-08 0.0858128
2466 2547 2546 1e-08 0.0915094
2466 2467 2548 1e-08 0.0923232
2466 2548 2547 1e-08 0.0947646
2467 2468 2548 1e-08 0.0947646
2468 2549 2548 1e-08 0.0996475
2468 2469 2550 1e-08 0.0980199
2468 2550 2549 1e-08 0.101275
2469 2470 2550 1e-08 0.0988337
2470 2551 2550 1e-08 0.102903
2470 2471 2552 1e-08 0.0988337
2470 2552 2551 1e-08 0.102903
2471 2472 2552 1e-08 0.0980199
2472 2553 2552 1e-08 0.101275
2472 2473 2554 1e-08 0.0947646
2472 2554 2553 1e-08 0.0996475
2473 2474 2554 1e-08 0.0923232
2474 2555 2554 1e-08 0.0947646
2474 2475 2556 1e-08 0.0858128
2474 2556 2555 1e-08 0.0915094
2475 2476 2556 1e-08 0.0817438
2476 2557 2556 1e-08 0.0833714
2476 2477 2558 1e-08 0.0719782
2476 2558 2557 1e-08 0.0784886
2477 2478 2558 1e-08 0.0662816
2478 2559 2558 1e-08 0.0670954
2478 2479 2560 1e-08 0.0532607
2478 2560 2559 1e-08 0.060585
2479 2480 2560 1e-08 0.0459365
2480 2561 2560 1e-08 0.0459365
2480 2481 2562 1e-08 0.0296605
2480 2562 2561 1e-08 0.0377985
2481 2482 2562 1e-08 0.0207087
2482 2563 2562 1e-08 0.0198949
2482 2483 2564 1e-08 0.00117741
2482 2564 2563 1e-08 0.0101292
2483 2484 2564 1e-08 0
2484 2565 2564 1e-08 0
2484 2485 2566 1e-08 0
2484 2566 2565 1e-08 0
2485 2486 2566 1e-08 0
2486 2567 2566 1e-08 0
2486 2487 2568 1e-08 0
2486 2568 2567 1e-08 0
2487 2488 2568 1e-08 0
2488 2569 2568 1e-08 0
2488 2489 2570 1e-08 0
2488 2570 2569 1e-08 0
2489 2490 2570 1e-08 0
2490 2571 2570 1e-08 0
2490 2491 2572 1e-08 0
2490 2572 2571 1e-08 0
2491 2492 2572 1e-08 0
2492 2573 2572 1e-08 0
2492 2493 2574 1e-08 0
2492 2574 2573 1e-08 0
2493 2494 2574 1e-08 0
2494 2575 2574 1e-08 0
2494 2495 2576 1e-08 0
2494 2576 2575 1e-08 0
2495 2496 2576 1e-08 0
2496 2577 2576 1e-08 0
2496 2497 2578 1e-08 0
2496 2578 2577 1e-08 0
2497 2498 2578 1e-08 0
2498 2579 2578 1e-08 0
2498 2499 2580 1e-08 0
2498 2580 2579 1e-08 0
2499 2500 2580 1e-08 0
2500 2581 2580 1e-08 0
2500 2501 2582 1e-08 0
2500 2582 2581 1e-08 0
2501 2502 2582 1e-08 0
2502 2583 2582 1e-08 0
2502 2503 2584 1e-08 0
2502 2584 2583 1e-08 0
2503 2504 2584 1e-08 0
2504 2585 2584 1e-08 0
2504 2505 2586 1e-08 0
2504 2586 2585 1e-08 0
2505 2506 2586 1e-08 0
2506 2587 2586 1e-08 0
2506 2507 2588 1e-08 0
2506 2588 2587 1e-08 0
2507 2508 2588 1e-08 0
2508 2589 2588 1e-08 0
2508 2509 2590 1e-08 0
2508 2590 2589 1e-08 0
2509 2510 2590 1e-08 0
2510 2591 2590 1e-08 0
2511 2512 2592 1e-08 0
2512 2593 2592 1e-08 0
2512 2513 2594 1e-08 0
2512 2594 2593 1e-08 0
2513 2514 2594 1e-08 0
2514 2595 2594 1e-08 0
2514 2515 2596 1e-08 0
2514 2596 2595 1e-08 0
2515 2516 2596 1e-08 0
2516 2597 2596 1e-08 0
2516 2517 2598 1e-08 0
2516 2598 2597 1e-08 0
2517 2518 2598 1e-08 0
2518 2599 2598 1e-08 0
2518 2519 2600 1e-08 0
2518 2600 2599 1e-08 0
2519 2520 2600 1e-08 0
2520 2601 2600 1e-08 0
2520 2521 2602 1e-08 0
2520 2602 2601 1e-08 0
2521 2522 2602 1e-08 0
2522 2603 2602 1e-08 0
2522 2523 2604 1e-08 0
2522 2604 2603 1e-08 0
2523 2524 2604 1e-08 0
2524 2605 2604 1e-08 0
2524 2525 2606 1e-08 0
2524 2606 2605 1e-08 0
2525 2526 2606 1e-08 0
2526 2607 2606 1e-08 0
2526 2527 2608 1e-08 0
2526 2608 2607 1e-08 0
2527 2528 2608 1e-08 0
2528 2609 2608 1e-08 0
2528 2529 2610 1e-08 0
2528 2610 2609 1e-08 0
2529 2530 2610 1e-08 0
2530 2611 2610 1e-08 0
2530 2531 2612 1e-08 0
2530 2612 2611 1e-08 0
2531 2532 2612 1e-08 0
2532 2613 2612 1e-08 0
2532 2533 2614 1e-08 0
2532 2614 2613 1e-08 0
2533 2534 2614 1e-08 0
2534 2615 2614 1e-08 0
2534 2535 2616 1e-08 0
2534 2616 2615 1e-08 0
2535 2536 2616 1e-08 0
2536 2617 2616 1e-08 0
2536 2537 2618 1e-08 0
2536 2618 2617 1e-08 0
2537 2538 2618 1e-08 0
2538 2619 2618 1e-08 0.00524642
2538 2539 2620 1e-08 0.0174535
2538 2620 2619 1e-08 0.0158258
2539 2540 2620 1e-08 0.0272191
2540 2621 2620 1e-08 0.0353571
2540 2541 2622 1e-08 0.0451227
2540 2622 2621 1e-08 0.0443089
2541 2542 2622 1e-08 0.0532607
2542 2623 2622 1e-08 0.060585
2542 2543 2624 1e-08 0.0679092
2542 2624 2623 1e-08 0.0679092
2543 2544 2624 1e-08 0.0744196
2544 2625 2624 1e-08 0.08093
2544 2545 2626 1e-08 0.0858128
2544 2626 2625 1e-08 0.0866266
2545 2546 2626 1e-08 0.0906956
2546 2627 2626 1e-08 0.0963923
2546 2547 2628 1e-08 0.0988337
2546 2628 2627 1e-08 0.100461
2547 2548 2628 1e-08 0.102089
2548 2629 2628 1e-08 0.106972
2548 2549 2630 1e-08 0.106972
2548 2630 2629 1e-08 0.109413
2549 2550 2630 1e-08 0.108599
2550 2631 2630 1e-08 0.112668
2550 2551 2632 1e-08 0.110227
2550 2632 2631 1e-08 0.113482
2551 2552 2632 1e-08 0.110227
2552 2633 2632 1e-08 0.113482
2552 2553 2634 1e-08 0.108599
2552 2634 2633 1e-08 0.112668
2553 2554 2634 1e-08 0.106972
2554 2635 2634 1e-08 0.109413
2554 2555 2636 1e-08 0.102089
2554 2636 2635 1e-08 0.106972
2555 2556 2636 1e-08 0.0988337
2556 2637 2636 1e-08 0.100461
2556 2557 2638 1e-08 0.0906956
2556 2638 2637 1e-08 0.0963923
2557 2558 2638 1e-08 0.0858128
2558 2639 2638 1e-08 0.0866266
2558 2559 2640 1e-08 0.0744196
2558 2640 2639 1e-08 0.08093
2559 2560 2640 1e-08 0.0679092
2560 2641 2640 1e-08 0.0679092
2560 2561 2642 1e-08 0.0532607
2560 2642 2641 1e-08 0.060585
2561 2562 2642 1e-08 0.0451227
2562 2643 2642 1e-08 0.0443089
2562 2563 2644 1e-08 0.0272191
2562 2644 2643 1e-08 0.0353571
2563 2564 2644 1e-08 0.0174535
2564 2645 2644 1e-08 0.0158258
2564 2565 2646 1e-08 0
2564 2646 2645 1e-08 0.00524642
2565 2566 2646 1e-08 0
2566 2647 2646 1e-08 0
2566 2567 2648 1e-08 0
2566 2648 2647 1e-08 0
2567 2568 2648 1e-08 0
2568 2649 2648 1e-08 0
2568 2569 2650 1e-08 0
2568 2650 2649 1e-08 0
2569 2570 2650 1e-08 0
2570 2651 2650 1e-08 0
2570 2571 2652 1e-08 0
2570 2652 2651 1e-08 0
2571 2572 2652 1e-08 0
2572 2653 2652 1e-08 0
2572 2573 2654 1e-08 0
2572 2654 2653 1e-08 0
2573 2574 2654 1e-08 0
2574 2655 2654 1e-08 0
2574 2575 2656 1e-08 0
2574 2656 2655 1e-08 0
2575 2576 2656 1e-08 0
2576 2657 2656 1e-08 0
2576 2577 2658 1e-08 0
2576 2658 2657 1e-08 0
2577 2578 2658 1e-08 0
2578 2659 2658 1e-08 0
2578 2579 2660 1e-08 0
2578 2660 2659 1e-08 0
2579 2580 2660 1e-08 0
2580 2661 2660 1e-08 0
2580 2581 2662 1e-08 0
2580 2662 2661 1e-08 0
2581 2582 2662 1e-08 0
2582 2663 2662 1e-08 0
2582 2583 2664 1e-08 0
2582 2664 2663 1e-08 0
2583 2584 2664 1e-08 0
2584 2665 2664 1e-08 0
2584 2585 2666 1e-08 0
2584 2666 2665 1e-08 0
2585 2586 2666 1e-08 0
2586 2667 2666 1e-08 0
2586 2587 2668 1e-08 0
2586 2668 2667 1e-08 0
2587 2588 2668 1e-08 0
2588 2669 2668 1e-08 0
2588 2589 2670 1e-08 0
2588 2670 2669 1e-08 0
2589 2590 2670 1e-08 0
2590 2671 2670 1e-08 0
2590 2591 2672 1e-08 0
2590 2672 2671 1e-08 0
2592 2593 2674 1e-08 0
2592 2674 2673 1e-08 0
2593 2594 2674 1e-08 0
2594 2675 2674 1e-08 0
2594 2595 2676 1e-08 0
2594 2676 2675 1e-08 0
2595 2596 2676 1e-08 0
2596 2677 2676 1e-08 0
2596 2597 2678 1e-08 0
2596 2678 2677 1e-08 0
2597 2598 2678 1e-08 0
2598 2679 2678 1e-08 0
2598 2599 2680 1e-08 0
2598 2680 2679 1e-08 0
2599 2600 2680 1e-08 0
2600 2681 2680 1e-08 0
2600 2601 2682 1e-08 0
2600 2682 2681 1e-08 0
2601 2602 2682 1e-08 0
2602 2683 2682 1e-08 0
2602 2603 2684 1e-08 0
2602 2684 2683 1e-08 0
2603 2604 2684 1e-08 0
2604 2685 2684 1e-08 0
2604 2605 2686 1e-08 0
2604 2686 2685 1e-08 0
2605 2606 2686 1e-08 0
2606 2687 2686 1e-08 0
2606 2607 2688 1e-08 0
2606 2688 2687 1e-08 0
2607 2608 2688 1e-08 0
2608 2689 2688 1e-08 0
2608 2609 2690 1e-08 0
2608 2690 2689 1e-08 0
2609 2610 2690 1e-08 0
2610 2691 2690 1e-08 0
2610 2611 2692 1e-08 0
2610 2692 2691 1e-08 0
2611 2612 2692 1e-08 0
2612 2693 2692 1e-08 0
2612 2613 2694 1e-08 0
2612 2694 2693 1e-08 0
2613 2614 2694 1e-08 0
2614 2695 2694 1e-08 0
2614 2615 2696 1e-08 0
2614 2696 2695 1e-08 0
2615 2616 2696 1e-08 0
2616 2697 2696 1e-08 0
2616 2617 2698 1e-08 0
2616 2698 2697 1e-08 0
2617 2618 2698 1e-08 0
2618 2699 2698 1e-08 0
2618 2619 2700 1e-08 0.0117568
2618 2700 2699 1e-08 0.00931543
2619 2620 2700 1e-08 0.0223363
2620 2701 2700 1e-08 0.0304743
2620 2621 2702 1e-08 0.0418675
2620 2702 2701 1e-08 0.0402399
2621 2622 2702 1e-08 0.0508193
2622 2703 2702 1e-08 0.0581436
2622 2623 2704 1e-08 0.0670954
2622 2704 2703 1e-08 0.0662816
2623 2624 2704 1e-08 0.0744196
2624 2705 2704 1e-08 0.08093
2624 2625 2706 1e-08 0.0874404
2624 2706 2705 1e-08 0.0874404
2625 2626 2706 1e-08 0.093137
2626 2707 2706 1e-08 0.0988337
2626 2627 2708 1e-08 0.102903
2626 2708 2707 1e-08 0.103716
2627 2628 2708 1e-08 0.106972
2628 2709 2708 1e-08 0.111854
2628 2629 2710 1e-08 0.113482
2628 2710 2709 1e-08 0.11511
2629 2630 2710 1e-08 0.115924
2630 2711 2710 1e-08 0.119993
2630 2631 2712 1e-08 0.119179
2630 2712 2711 1e-08 0.12162
2631 2632 2712 1e-08 0.119993
2632 2713 2712 1e-08 0.123248
2632 2633 2714 1e-08 0.119993
2632 2714 2713 1e-08 0.123248
2633 2634 2714 1e-08 0.119179
2634 2715 2714 1e-08 0.12162
2634 2635 2716 1e-08 0.115924
2634 2716 2715 1e-08 0.119993
2635 2636 2716 1e-08 0.113482
2636 2717 2716 1e-08 0.11511
2636 2637 2718 1e-08 0.106972
2636 2718 2717 1e-08 0.111854
2637 2638 2718 1e-08 0.102903
2638 2719 2718 1e-08 0.103716
2638 2639 2720 1e-08 0.093137
2638 2720 2719 1e-08 0.0988337
2639 2640 2720 1e-08 0.0874404
2640 2721 2720 1e-08 0.0874404
2640 2641 2722 1e-08 0.0744196
2640 2722 2721 1e-08 0.08093
2641 2642 2722 1e-08 0.0670954
2642 2723 2722 1e-08 0.0662816
2642 2643 2724 1e-08 0.0508193
2642 2724 2723 1e-08 0.0581436
2643 2644 2724 1e-08 0.0418675
2644 2725 2724 1e-08 0.0402399
2644 2645 2726 1e-08 0.0223363
2644 2726 2725 1e-08 0.0304743
2645 2646 2726 1e-08 0.0117568
2646 2727 2726 1e-08 0.00931543
2646 2647 2728 1e-08 0
2646 2728 2727 1e-08 0
2647 2648 2728 1e-08 0
2648 2729 2728 1e-08 0
2648 2649 2730 1e-08 0
2648 2730 2729 1e-08 0
2649 2650 2730 1e-08 0
2650 2731 2730 1e-08 0
2650 2651 2732 1e-08 0
2650 2732 2731 1e-08 0
2651 2652 2732 1e-08 0
2652 2733 2732 1e-08 0
2652 2653 2734 1e-08 0
2652 2734 2733 1e-08 0
2653 2654 2734 1e-08 0
2654 2735 2734 1e-08 0
2654 2655 2736 1e-08 0
2654 2736 2735 1e-08 0
2655 2656 2736 1e-08 0
2656 2737 2736 1e-08 0
2656 2657 2738 1e-08 0
2656 2738 2737 1e-08 0
2657 2658 2738 1e-08 0
2658 2739 2738 1e-08 0
2658 2659 2740 1e-08 0
2658 2740 2739 1e-08 0
2659 2660 2740 1e-08 0
2660 2741 2740 1e-08 0
2660 2661 2742 1e-08 0
2660 2742 2741 1e-08 0
2661 2662 2742 1e-08 0
2662 2743 2742 1e-08 0
2662 2663 2744 1e-08 0
2662 2744 2743 1e-08 0
2663 2664 2744 1e-08 0
2664 2745 2744 1e-08 0
2664 2665 2746 1e-08 0
2664 2746 2745 1e-08 0
2665 2666 2746 1e-08 0
2666 2747 2746 1e-08 0
2666 2667 2748 1e-08 0
2666 2748 2747 1e-08 0
2667 2668 2748 1e-08 0
2668 2749 2748 1e-08 0
2668 2669 2750 1e-08 0
2668 2750 2749 1e-08 0
2669 2670 2750 1e-08 0
2670 2751 2750 1e-08 0
2670 2671 2752 1e-08 0
2670 2752 2751 1e-08 0
2671 2672 2752 1e-08 0
2672 2753 2752 1e-08 0
2673 2674 2754 1e-08 0
2674 2755 2754 1e-08 0
2674 2675 2756 1e-08 0
2674 2756 2755 1e-08 0
2675 2676 2756 1e-08 0
2676 2757 2756 1e-08 0
2676 2677 2758 1e-08 0
2676 2758 2757 1e-08 0
2677 2678 2758 1e-08 0
2678 2759 2758 1e-08 0
2678 2679 2760 1e-08 0
2678 2760 2759 1e-08 0
2679 2680 2760 1e-08 0
2680 2761 2760 1e-08 0
2680 2681 2762 1e-08 0
2680 2762 2761 1e-08 0
2681 2682 2762 1e-08 0
2682 2763 2762 1e-08 0
2682 2683 2764 1e-08 0
2682 2764 2763 1e-08 0
2683 2684 2764 1e-08 0
2684 2765 2764 1e-08 0
2684 2685 2766 1e-08 0
2684 2766 2765 1e-08 0
2685 2686 2766 1e-08 0
2686 2767 2766 1e-08 0
2686 2687 2768 1e-08 0
2686 2768 2767 1e-08 0
2687 2688 2768 1e-08 0
2688 2769 2768 1e-08 0
2688 2689 2770 1e-08 0
2688 2770 2769 1e-08 0
2689 2690 2770 1e-08 0
2690 2771 2770 1e-08 0
2690 2691 2772 1e-08 0
2690 2772 2771 1e-08 0
2691 2692 2772 1e-08 0
2692 2773 2772 1e-08 0
2692 2693 2774 1e-08 0
2692 2774 2773 1e-08 0
2693 2694 2774 1e-08 0
2694 2775 2774 1e-08 0
2694 2695 2776 1e-08 0
2694 2776 2775 1e-08 0
2695 2696 2776 1e-08 0
2696 2777 2776 1e-08 0
2696 2697 2778 1e-08 0
2696 2778 2777 1e-08 0
2697 2698 2778 1e-08 0
2698 2779 2778 1e-08 0
2698 2699 2780 1e-08 0.00361882
2698 2780 2779 1e-08 0.000363607
2699 2700 2780 1e-08 0.015012
2700 2781 2780 1e-08 0.0231501
2700 2701 2782 1e-08 0.0361709
2700 2782 2781 1e-08 0.0337295
2701 2702 2782 1e-08 0.0459365
2702 2783 2782 1e-08 0.0532607
2702 2703 2784 1e-08 0.0638402
2702 2784 2783 1e-08 0.0622126
2703 2704 2784 1e-08 0.0719782
2704 2785 2784 1e-08 0.0784886
2704 2705 2786 1e-08 0.0866266
2704 2786 2785 1e-08 0.0858128
2705 2706 2786 1e-08 0.093137
2706 2787 2786 1e-08 0.0988337
2706 2707 2788 1e-08 0.10453
2706 2788 2787 1e-08 0.10453
2707 2708 2788 1e-08 0.109413
2708 2789 2788 1e-08 0.114296
2708 2709 2790 1e-08 0.117551
2708 2790 2789 1e-08 0.118365
2709 2710 2790 1e-08 0.120806
2710 2791 2790 1e-08 0.124875
2710 2711 2792 1e-08 0.125689
2710 2792 2791 1e-08 0.127317
2711 2712 2792 1e-08 0.127317
2712 2793 2792 1e-08 0.130572
2712 2713 2794 1e-08 0.128944
2712 2794 2793 1e-08 0.131386
2713 2714 2794 1e-08 0.128944
2714 2795 2794 1e-08 0.131386
2714 2715 2796 1e-08 0.127317
2714 2796 2795 1e-08 0.130572
2715 2716 2796 1e-08 0.125689
2716 2797 2796 1e-08 0.127317
2716 2717 2798 1e-08 0.120806
2716 2798 2797 1e-08 0.124875
2717 2718 2798 1e-08 0.117551
2718 2799 2798 1e-08 0.118365
2718 2719 2800 1e-08 0.109413
2718 2800 2799 1e-08 0.114296
2719 2720 2800 1e-08 0.10453
2720 2801 2800 1e-08 0.10453
2720 2721 2802 1e-08 0.093137
2720 2802 2801 1e-08 0.0988337
2721 2722 2802 1e-08 0.0866266
2722 2803 2802 1e-08 0.0858128
2722 2723 2804 1e-08 0.0719782
2722 2804 2803 1e-08 0.0784886
2723 2724 2804 1e-08 0.0638402
2724 2805 2804 1e-08 0.0622126
2724 2725 2806 1e-08 0.0459365
2724 2806 2805 1e-08 0.0532607
2725 2726 2806 1e-08 0.0361709
2726 2807 2806 1e-08 0.0337295
2726 2727 2808 1e-08 0.015012
2726 2808 2807 1e-08 0.0231501
2727 2728 2808 1e-08 0.00361882
2728 2809 2808 1e-08 0.000363607
2728 2729 2810 1e-08 0
2728 2810 2809 1e-08 0
2729 2730 2810 1e-08 0
2730 2811 2810 1e-08 0
2730 2731 2812 1e-08 0
2730 2812 2811 1e-08 0
2731 2732 2812 1e-08 0
2732 2813 2812 1e-08 0
2732 2733 2814 1e-08 0
2732 2814 2813 1e-08 0
2733 2734 2814 1e-08 0
2734 2815 2814 1e-08 0
2734 2735 2816 1e-08 0
2734 2816 2815 1e-08 0
2735 2736 2816 1e-08 0
2736 2817 2816 1e-08 0
2736 2737 2818 1e-08 0
2736 2818 2817 1e-08 0
2737 2738 2818 1e-08 0
2738 2819 2818 1e-08 0
2738 2739 2820 1e-08 0
2738 2820 2819 1e-08 0
2739 2740 2820 1e-08 0
2740 2821 2820 1e-08 0
2740 2741 2822 1e-08 0
2740 2822 2821 1e-08 0
2741 2742 2822 1e-08 0
2742 2823 2822 1e-08 0
2742 2743 2824 1e-08 0
2742 2824 2823 1e-08 0
2743 2744 2824 1e-08 0
2744 2825 2824 1e-08 0
2744 2745 2826 1e-08 0
2744 2826 2825 1e-08 0
2745 2746 2826 1e-08 0
2746 2827 2826 1e-08 0
2746 2747 2828 1e-08 0
2746 2828 2827 1e-08 0
2747 2748 2828 1e-08 0
2748 2829 2828 1e-08 0
2748 2749 2830 1e-08 0
2748 2830 2829 1e-08 0
2749 2750 2830 1e-08 0
2750 2831 2830 1e-08 0
2750 2751 2832 1e-08 0
2750 2832 2831 1e-08 0
2751 2752 2832 1e-08 0
2752 2833 2832 1e-08 0
2752 2753 2834 1e-08 0
2752 2834 2833 1e-08 0
2754 2755 2836 1e-08 0
2754 2836 2835 1e-08 0
2755 2756 2836 1e-08 0
2756 2837 2836 1e-08 0
2756 2757 2838 1e-08 0
2756 2838 2837 1e-08 0
2757 2758 2838 1e-08 0
2758 2839 2838 1e-08 0
2758 2759 2840 1e-08 0
2758 2840 2839 1e-08 0
2759 2760 2840 1e-08 0
2760 2841 2840 1e-08 0
2760 2761 2842 1e-08 0
2760 2842 2841 1e-08 0
2761 2762 2842 1e-08 0
2762 2843 2842 1e-08 0
2762 2763 2844 1e-08 0
2762 2844 2843 1e-08 0
2763 2764 2844 1e-08 0
2764 2845 2844 1e-08 0
2764 2765 2846 1e-08 0
2764 2846 2845 1e-08 0
2765 2766 2846 1e-08 0
2766 2847 2846 1e-08 0
2766 2767 2848 1e-08 0
2766 2848 2847 1e-08 0
2767 2768 2848 1e-08 0
2768 2849 2848 1e-08 0
2768 2769 2850 1e-08 0
2768 2850 2849 1e-08 0
2769 2770 2850 1e-08 0
2770 2851 2850 1e-08 0
2770 2771 2852 1e-08 0
2770 2852 2851 1e-08 0
2771 2772 2852 1e-08 0
2772 2853 2852 1e-08 0
2772 2773 2854 1e-08 0
2772 2854 2853 1e-08 0
2773 2774 2854 1e-08 0
2774 2855 2854 1e-08 0
2774 2775 2856 1e-08 0
2774 2856 2855 1e-08 0
2775 2776 2856 1e-08 0
2776 2857 2856 1e-08 0
2776 2777 2858 1e-08 0
2776 2858 2857 1e-08 0
2777 2778 2858 1e-08 0
2778 2859 2858 1e-08 0
2778 2779 2860 1e-08 0
2778 2860 2859 1e-08 0
2779 2780 2860 1e-08 0.00524642
2780 2861 2860 1e-08 0.0133844
2780 2781 2862 1e-08 0.0280329
2780 2862 2861 1e-08 0.0247777
2781 2782 2862 1e-08 0.0386123
2782 2863 2862 1e-08 0.0459365
2782 2783 2864 1e-08 0.0581436
2782 2864 2863 1e-08 0.0557021
2783 2784 2864 1e-08 0.0670954
2784 2865 2864 1e-08 0.0736058
2784 2785 2866 1e-08 0.0833714
2784 2866 2865 1e-08 0.0817438
2785 2786 2866 1e-08 0.0906956
2786 2867 2866 1e-08 0.0963923
2786 2787 2868 1e-08 0.103716
2786 2868 2867 1e-08 0.102903
2787 2788 2868 1e-08 0.109413
2788 2869 2868 1e-08 0.114296
2788 2789 2870 1e-08 0.119179
2788 2870 2869 1e-08 0.119179
2789 2790 2870 1e-08 0.123248
2790 2871 2870 1e-08 0.127317
2790 2791 2872 1e-08 0.129758
2790 2872 2871 1e-08 0.130572
2791 2792 2872 1e-08 0.1322
2792 2873 2872 1e-08 0.135455
2792 2793 2874 1e-08 0.135455
2792 2874 2873 1e-08 0.137082
2793 2794 2874 1e-08 0.136269
2794 2875 2874 1e-08 0.13871
2794 2795 2876 1e-08 0.136269
2794 2876 2875 1e-08 0.13871
2795 2796 2876 1e-08 0.135455
2796 2877 2876 1e-08 0.137082
2796 2797 2878 1e-08 0.1322
2796 2878 2877 1e-08 0.135455
2797 2798 2878 1e-08 0.129758
2798 2879 2878 1e-08 0.130572
2798 2799 2880 1e-08 0.123248
2798 2880 2879 1e-08 0.127317
2799 2800 2880 1e-08 0.119179
2800 2881 2880 1e-08 0.119179
2800 2801 2882 1e-08 0.109413
2800 2882 2881 1e-08 0.114296
2801 2802 2882 1e-08 0.103716
2802 2883 2882 1e-08 0.102903
2802 2803 2884 1e-08 0.0906956
2802 2884 2883 1e-08 0.0963923
2803 2804 2884 1e-08 0.0833714
2804 2885 2884 1e-08 0.0817438
2804 2805 2886 1e-08 0.0670954
2804 2886 2885 1e-08 0.0736058
2805 2806 2886 1e-08 0.0581436
2806 2887 2886 1e-08 0.0557021
2806 2807 2888 1e-08 0.0386123
2806 2888 2887 1e-08 0.0459365
2807 2808 2888 1e-08 0.0280329
2808 2889 2888 1e-08 0.0247777
2808 2809 2890 1e-08 0.00524642
2808 2890 2889 1e-08 0.0133844
2809 2810 2890 1e-08 0
2810 2891 2890 1e-08 0
2810 2811 2892 1e-08 0
2810 2892 2891 1e-08 0
2811 2812 2892 1e-08 0
2812 2893 2892 1e-08 0
2812 2813 2894 1e-08 0
2812 2894 2893 1e-08 0
2813 2814 2894 1e-08 0
2814 2895 2894 1e-08 0
2814 2815 2896 1e-08 0
2814 2896 2895 1e-08 0
2815 2816 2896 1e-08 0
2816 2897 2896 1e-08 0
2816 2817 2898 1e-08 0
2816 2898 2897 1e-08 0
2817 2818 2898 1e-08 0
2818 2899 2898 1e-08 0
2818 2819 2900 1e-08 0
2818 2900 2899 1e-08 0
2819 2820 2900 1e-08 0
2820 2901 2900 1e-08 0
2820 2821 2902 1e-08 0
2820 2902 2901 1e-08 0
2821 2822 2902 1e-08 0
2822 2903 2902 1e-08 0
2822 2823 2904 1e-08 0
2822 2904 2903 1e-08 0
2823 2824 2904 1e-08 0
2824 2905 2904 1e-08 0
2824 2825 2906 1e-08 0
2824 2906 2905 1e-08 0
2825 2826 2906 1e-08 0
2826 2907 2906 1e-08 0
2826 2827 2908 1e-08 0
2826 2908 2907 1e-08 0
2827 2828 2908 1e-08 0
2828 2909 2908 1e-08 0
2828 2829 2910 1e-08 0
2828 2910 2909 1e-08 0
2829 2830 2910 1e-08 0
2830 2911 2910 1e-08 0
2830 2831 2912 1e-08 0
2830 2912 2911 1e-08 0
2831 2832 2912 1e-08 0
2832 2913 2912 1e-08 0
2832 2833 2914 1e-08 0
2832 2914 2913 1e-08 0
2833 2834 2914 1e-08 0
2834 2915 2914 1e-08 0
2835 2836 2916 1e-08 0
2836 2917 2916 1e-08 0
2836 2837 2918 1e-08 0
2836 2918 2917 1e-08 0
2837 2838 2918 1e-08 0
2838 2919 2918 1e-08 0
2838 2839 2920 1e-08 0
2838 2920 2919 1e-08 0
2839 2840 2920 1e-08 0
2840 2921 2920 1e-08 0
2840 2841 2922 1e-08 0
2840 2922 2921 1e-08 0
2841 2842 2922 1e-08 0
2842 2923 2922 1e-08 0
2842 2843 2924 1e-08 0
2842 2924 2923 1e-08 0
2843 2844 2924 1e-08 0
2844 2925 2924 1e-08 0
2844 2845 2926 1e-08 0
2844 2926 2925 1e-08 0
2845 2846 2926 1e-08 0
2846 2927 2926 1e-08 0
2846 2847 2928 1e-08 0
2846 2928 2927 1e-08 0
2847 2848 2928 1e-08 0
2848 2929 2928 1e-08 0
2848 2849 2930 1e-08 0
2848 2930 2929 1e-08 0
2849 2850 2930 1e-08 0
2850 2931 2930 1e-08 0
2850 2851 2932 1e-08 0
2850 2932 2931 1e-08 0
2851 2852 2932 1e-08 0
2852 2933 2932 1e-08 0
2852 2853 2934 1e-08 0
2852 2934 2933 1e-08 0
2853 2854 2934 1e-08 0
2854 2935 2934 1e-08 0
2854 2855 2936 1e-08 0
2854 2936 2935 1e-08 0
2855 2856 2936 1e-08 0
2856 2937 2936 1e-08 0
2856 2857 2938 1e-08 0
2856 2938 2937 1e-08 0
2857 2858 2938 1e-08 0
2858 2939 2938 1e-08 0
2858 2859 2940 1e-08 0
2858 2940 2939 1e-08 0
2859 2860 2940 1e-08 0
2860 2941 2940 1e-08 0.00117741
2860 2861 2942 1e-08 0.0174535
2860 2942 2941 1e-08 0.0133844
2861 2862 2942 1e-08 0.0288467
2862 2943 2942 1e-08 0.0361709
2862 2863 2944 1e-08 0.0500055
2862 2944 2943 1e-08 0.0467503
2863 2864 2944 1e-08 0.0597712
2864 2945 2944 1e-08 0.0662816
2864 2865 2946 1e-08 0.0776748
2864 2946 2945 1e-08 0.0752334
2865 2866 2946 1e-08 0.0858128
2866 2947 2946 1e-08 0.0915094
2866 2867 2948 1e-08 0.100461
2866 2948 2947 1e-08 0.0988337
2867 2868 2948 1e-08 0.106972
2868 2949 2948 1e-08 0.111854
2868 2869 2950 1e-08 0.118365
2868 2950 2949 1e-08 0.117551
2869 2870 2950 1e-08 0.123248
2870 2951 2950 1e-08 0.127317
2870 2871 2952 1e-08 0.131386
2870 2952 2951 1e-08 0.131386
2871 2872 2952 1e-08 0.134641
2872 2953 2952 1e-08 0.137896
2872 2873 2954 1e-08 0.139524
2872 2954 2953 1e-08 0.140338
2873 2874 2954 1e-08 0.141151
2874 2955 2954 1e-08 0.143593
2874 2875 2956 1e-08 0.142779
2874 2956 2955 1e-08 0.144407
2875 2876 2956 1e-08 0.142779
2876 2957 2956 1e-08 0.144407
2876 2877 2958 1e-08 0.141151
2876 2958 2957 1e-08 0.143593
2877 2878 2958 1e-08 0.139524
2878 2959 2958 1e-08 0.140338
2878 2879 2960 1e-08 0.134641
2878 2960 2959 1e-08 0.137896
2879 2880 2960 1e-08 0.131386
2880 2961 2960 1e-08 0.131386
2880 2881 2962 1e-08 0.123248
2880 2962 2961 1e-08 0.127317
2881 2882 2962 1e-08 0.118365
2882 2963 2962 1e-08 0.117551
2882 2883 2964 1e-08 0.106972
2882 2964 2963 1e-08 0.111854
2883 2884 2964 1e-08 0.100461
2884 2965 2964 1e-08 0.0988337
2884 2885 2966 1e-08 0.0858128
2884 2966 2965 1e-08 0.0915094
2885 2886 2966 1e-08 0.0776748
2886 2967 2966 1e-08 0.0752334
2886 2887 2968 1e-08 0.0597712
2886 2968 2967 1e-08 0.0662816
2887 2888 2968 1e-08 0.0500055
2888 2969 2968 1e-08 0.0467503
2888 2889 2970 1e-08 0.0288467
2888 2970 2969 1e-08 0.0361709
2889 2890 2970 1e-08 0.0174535
2890 2971 2970 1e-08 0.0133844
2890 2891 2972 1e-08 0
2890 2972 2971 1e-08 0.00117741
2891 2892 2972 1e-08 0
2892 2973 2972 1e-08 0
2892 2893 2974 1e-08 0
2892 2974 2973 1e-08 0
2893 2894 2974 1e-08 0
2894 2975 2974 1e-08 0
2894 2895 2976 1e-08 0
2894 2976 2975 1e-08 0
2895 2896 2976 1e-08 0
2896 2977 2976 1e-08 0
2896 2897 2978 1e-08 0
2896 2978 2977 1e-08 0
2897 2898 2978 1e-08 0
2898 2979 2978 1e-08 0
2898 2899 2980 1e-08 0
2898 2980 2979 1e-08 0
2899 2900 2980 1e-08 0
2900 2981 2980 1e-08 0
2900 2901 2982 1e-08 0
2900 2982 2981 1e-08 0
2901 2902 2982 1e-08 0
2902 2983 2982 1e-08 0
2902 2903 2984 1e-08 0
2902 2984 2983 1e-08 0
2903 2904 2984 1e-08 0
2904 2985 2984 1e-08 0
2904 2905 2986 1e-08 0
2904 2986 2985 1e-08 0
2905 2906 2986 1e-08 0
2906 2987 2986 1e-08 0
2906 2907 2988 1e-08 0
2906 2988 2987 1e-08 0
2907 2908 2988 1e-08 0
2908 2989 2988 1e-08 0
2908 2909 2990 1e-08 0
2908 2990 2989 1e-08 0
2909 2910 2990 1e-08 0
2910 2991 2990 1e-08 0
2910 2911 2992 1e-08 0
2910 2992 2991 1e-08 0
2911 2912 2992 1e-08 0
2912 2993 2992 1e-08 0
2912 2913 2994 1e-08 0
2912 2994 2993 1e-08 0
2913 2914 2994 1e-08 0
2914 2995 2994 1e-08 0
2914 2915 2996 1e-08 0
2914 2996 2995 1e-08 0
2916 2917 2998 1e-08 0
2916 2998 2997 1e-08 0
2917 2918 2998 1e-08 0
2918 2999 2998 1e-08 0
2918 2919 3000 1e-08 0
2918 3000 2999 1e-08 0
2919 2920 3000 1e-08 0
2920 3001 3000 1e-08 0
2920 2921 3002 1e-08 0
2920 3002 3001 1e-08 0
2921 2922 3002 1e-08 0
2922 3003 3002 1e-08 0
2922 2923 3004 1e-08 0
2922 3004 3003 1e-08 0
2923 2924 3004 1e-08 0
2924 3005 3004 1e-08 0
2924 2925 3006 1e-08 0
2924 3006 3005 1e-08 0
2925 2926 3006 1e-08 0
2926 3007 3006 1e-08 0
2926 2927 3008 1e-08 0
2926 3008 3007 1e-08 0
2927 2928 3008 1e-08 0
2928 3009 3008 1e-08 0
2928 2929 3010 1e-08 0
2928 3010 3009 1e-08 0
2929 2930 3010 1e-08 0
2930 3011 3010 1e-08 0
2930 2931 3012 1e-08 0
2930 3012 3011 1e-08 0
2931 2932 3012 1e-08 0
2932 3013 3012 1e-08 0
2932 2933 3014 1e-08 0
2932 3014 3013 1e-08 0
2933 2934 3014 1e-08 0
2934 3015 3014 1e-08 0
2934 2935 3016 1e-08 0
2934 3016 3015 1e-08 0
2935 2936 3016 1e-08 0
2936 3017 3016 1e-08 0
2936 2937 3018 1e-08 0
2936 3018 3017 1e-08 0
2937 2938 3018 1e-08 0
2938 3019 3018 1e-08 0
2938 2939 3020 1e-08 0
2938 3020 3019 1e-08 0
2939 2940 3020 1e-08 0
2940 3021 3020 1e-08 0
2940 2941 3022 1e-08 0.00443262
2940 3022 3021 1e-08 0
2941 2942 3022 1e-08 0.0166396
2942 3023 3022 1e-08 0.0239639
2942 2943 3024 1e-08 0.0394261
2942 3024 3023 1e-08 0.0353571
2943 2944 3024 1e-08 0.0500055
2944 3025 3024 1e-08 0.056516
2944 2945 3026 1e-08 0.0695368
2944 3026 3025 1e-08 0.0662816
2945 2946 3026 1e-08 0.0784886
2946 3027 3026 1e-08 0.0841852
2946 2947 3028 1e-08 0.0947646
2946 3028 3027 1e-08 0.0923232
2947 2948 3028 1e-08 0.102089
2948 3029 3028 1e-08 0.106972
2948 2949 3030 1e-08 0.11511
2948 3030 3029 1e-08 0.113482
2949 2950 3030 1e-08 0.120806
2950 3031 3030 1e-08 0.124875
2950 2951 3032 1e-08 0.130572
2950 3032 3031 1e-08 0.129758
2951 2952 3032 1e-08 0.134641
2952 3033 3032 1e-08 0.137896
2952 2953 3034 1e-08 0.141151
2952 3034 3033 1e-08 0.141151
2953 2954 3034 1e-08 0.143593
2954 3035 3034 1e-08 0.146034
2954 2955 3036 1e-08 0.146848
2954 3036 3035 1e-08 0.147662
2955 2956 3036 1e-08 0.147662
2956 3037 3036 1e-08 0.149289
2956 2957 3038 1e-08 0.147662
2956 3038 3037 1e-08 0.149289
2957 2958 3038 1e-08 0.146848
2958 3039 3038 1e-08 0.147662
2958 2959 3040 1e-08 0.143593
2958 3040 3039 1e-08 0.146034
2959 2960 3040 1e-08 0.141151
2960 3041 3040 1e-08 0.141151
2960 2961 3042 1e-08 0.134641
2960 3042 3041 1e-08 0.137896
2961 2962 3042 1e-08 0.130572
2962 3043 3042 1e-08 0.129758
2962 2963 3044 1e-08 0.120806
2962 3044 3043 1e-08 0.124875
2963 2964 3044 1e-08 0.11511
2964 3045 3044 1e-08 0.113482
2964 2965 3046 1e-08 0.102089
2964 3046 3045 1e-08 0.106972
2965 2966 3046 1e-08 0.0947646
2966 3047 3046 1e-08 0.0923232
2966 2967 3048 1e-08 0.0784886
2966 3048 3047 1e-08 0.0841852
2967 2968 3048 1e-08 0.0695368
2968 3049 3048 1e-08 0.0662816
2968 2969 3050 1e-08 0.0500055
2968 3050 3049 1e-08 0.056516
2969 2970 3050 1e-08 0.0394261
2970 3051 3050 1e-08 0.0353571
2970 2971 3052 1e-08 0.0166396
2970 3052 3051 1e-08 0.0239639
2971 2972 3052 1e-08 0.00443262
2972 3053 3052 1e-08 0
2972 2973 3054 1e-08 0
2972 3054 3053 1e-08 0
2973 2974 3054 1e-08 0
2974 3055 3054 1e-08 0
2974 2975 3056 1e-08 0
2974 3056 3055 1e-08 0
2975 2976 3056 1e-08 0
2976 3057 3056 1e-08 0
2976 2977 3058 1e-08 0
2976 3058 3057 1e-08 0
2977 2978 3058 1e-08 0
2978 3059 3058 1e-08 0
2978 2979 3060 1e-08 0
2978 3060 3059 1e-08 0
2979 2980 3060 1e-08 0
2980 3061 3060 1e-08 0
2980 2981 3062 1e-08 0
2980 3062 3061 1e-08 0
2981 2982 3062 1e-08 0
2982 3063 3062 1e-08 0
2982 2983 3064 1e-08 0
2982 3064 3063 1e-08 0
2983 2984 3064 1e-08 0
2984 3065 3064 1e-08 0
2984 2985 3066 1e-08 0
2984 3066 3065 1e-08 0
2985 2986 3066 1e-08 0
2986 3067 3066 1e-08 0
2986 2987 3068 1e-08 0
2986 3068 3067 1e-08 0
2987 2988 3068 1e-08 0
2988 3069 3068 1e-08 0
2988 2989 3070 1e-08 0
2988 3070 3069 1e-08 0
2989 2990 3070 1e-08 0
2990 3071 3070 1e-08 0
2990 2991 3072 1e-08 0
2990 3072 3071 1e-08 0
2991 2992 3072 1e-08 0
2992 3073 3072 1e-08 0
2992 2993 3074 1e-08 0
2992 3074 3073 1e-08 0
2993 2994 3074 1e-08 0
2994 3075 3074 1e-08 0
2994 2995 3076 1e-08 0
2994 3076 3075 1e-08 0
2995 2996 3076 1e-08 0
2996 3077 3076 1e-08 0
2997 2998 3078 1e-08 0
2998 3079 3078 1e-08 0
2998 2999 3080 1e-08 0
2998 3080 3079 1e-08 0
2999 3000 3080 1e-08 0
3000 3081 3080 1e-08 0
3000 3001 3082 1e-08 0
3000 3082 3081 1e-08 0
3001 3002 3082 1e-08 0
3002 3083 3082 1e-08 0
3002 3003 3084 1e-08 0
3002 3084 3083 1e-08 0
3003 3004 3084 1e-08 0
3004 3085 3084 1e-08 0
3004 3005 3086 1e-08 0
3004 3086 3085 1e-08 0
3005 3006 3086 1e-08 0
3006 3087 3086 1e-08 0
3006 3007 3088 1e-08 0
3006 3088 3087 1e-08 0
3007 3008 3088 1e-08 0
3008 3089 3088 1e-08 0
3008 3009 3090 1e-08 0
3008 3090 3089 1e-08 0
3009 3010 3090 1e-08 0
3010 3091 3090 1e-08 0
3010 3011 3092 1e-08 0
3010 3092 3091 1e-08 0
3011 3012 3092 1e-08 0
3012 3093 3092 1e-08 0
3012 3013 3094 1e-08 0
3012 3094 3093 1e-08 0
3013 3014 3094 1e-08 0
3014 3095 3094 1e-08 0
3014 3015 3096 1e-08 0
3014 3096 3095 1e-08 0
3015 3016 3096 1e-08 0
3016 3097 3096 1e-08 0
3016 3017 3098 1e-08 0
3016 3098 3097 1e-08 0
3017 3018 3098 1e-08 0
3018 3099 3098 1e-08 0
3018 3019 3100 1e-08 0
3018 3100 3099 1e-08 0
3019 3020 3100 1e-08 0
3020 3101 3100 1e-08 0
3020 3021 3102 1e-08 0
3020 3102 3101 1e-08 0
3021 3022 3102 1e-08 0.00199121
3022 3103 3102 1e-08 0.00931543
3022 3023 3104 1e-08 0.0264053
3022 3104 3103 1e-08 0.0215225
3023 3024 3104 1e-08 0.0377985
3024 3105 3104 1e-08 0.0443089
3024 3025 3106 1e-08 0.0589574
3024 3106 3105 1e-08 0.0548883
3025 3026 3106 1e-08 0.068723
3026 3107 3106 1e-08 0.0744196
3026 3027 3108 1e-08 0.0866266
3026 3108 3107 1e-08 0.0833714
3027 3028 3108 1e-08 0.0947646
3028 3109 3108 1e-08 0.0996475
3028 3029 3110 1e-08 0.109413
3028 3110 3109 1e-08 0.106972
3029 3030 3110 1e-08 0.115924
3030 3111 3110 1e-08 0.119993
3030 3031 3112 1e-08 0.127317
3030 3112 3111 1e-08 0.125689
3031 3032 3112 1e-08 0.1322
3032 3113 3112 1e-08 0.135455
3032 3033 3114 1e-08 0.140338
3032 3114 3113 1e-08 0.139524
3033 3034 3114 1e-08 0.143593
3034 3115 3114 1e-08 0.146034
3034 3035 3116 1e-08 0.148476
3034 3116 3115 1e-08 0.148476
3035 3036 3116 1e-08 0.150103
3036 3117 3116 1e-08 0.151731
3036 3037 3118 1e-08 0.151731
3036 3118 3117 1e-08 0.152545
3037 3038 3118 1e-08 0.151731
3038 3119 3118 1e-08 0.152545
3038 3039 3120 1e-08 0.150103
3038 3120 3119 1e-08 0.151731
3039 3040 3120 1e-08 0.148476
3040 3121 3120 1e-08 0.148476
3040 3041 3122 1e-08 0.143593
3040 3122 3121 1e-08 0.146034
3041 3042 3122 1e-08 0.140338
3042 3123 3122 1e-08 0.139524
3042 3043 3124 1e-08 0.1322
3042 3124 3123 1e-08 0.135455
3043 3044 3124 1e-08 0.127317
3044 3125 3124 1e-08 0.125689
3044 3045 3126 1e-08 0.115924
3044 3126 3125 1e-08 0.119993
3045 3046 3126 1e-08 0.109413
3046 3127 3126 1e-08 0.106972
3046 3047 3128 1e-08 0.0947646
3046 3128 3127 1e-08 0.0996475
3047 3048 3128 1e-08 0.0866266
3048 3129 3128 1e-08 0.0833714
3048 3049 3130 1e-08 0.068723
3048 3130 3129 1e-08 0.0744196
3049 3050 3130 1e-08 0.0589574
3050 3131 3130 1e-08 0.0548883
3050 3051 3132 1e-08 0.0377985
3050 3132 3131 1e-08 0.0443089
3051 3052 3132 1e-08 0.0264053
3052 3133 3132 1e-08 0.0215225
3052 3053 3134 1e-08 0.00199121
3052 3134 3133 1e-08 0.00931543
3053 3054 3134 1e-08 0
3054 3135 3134 1e-08 0
3054 3055 3136 1e-08 0
3054 3136 3135 1e-08 0
3055 3056 3136 1e-08 0
3056 3137 3136 1e-08 0
3056 3057 3138 1e-08 0
3056 3138 3137 1e-08 0
3057 3058 3138 1e-08 0
3058 3139 3138 1e-08 0
3058 3059 3140 1e-08 0
3058 3140 3139 1e-08 0
3059 3060 3140 1e-08 0
3060 3141 3140 1e-08 0
3060 3061 3142 1e-08 0
3060 3142 3141 1e-08 0
3061 3062 3142 1e-08 0
3062 3143 3142 1e-08 0
3062 3063 3144 1e-08 0
3062 3144 3143 1e-08 0
3063 3064 3144 1e-08 0
3064 3145 3144 1e-08 0
3064 3065 3146 1e-08 0
3064 3146 3145 1e-08 0
3065 3066 3146 1e-08 0
3066 3147 3146 1e-08 0
3066 3067 3148 1e-08 0
3066 3148 3147 1e-08 0
3067 3068 3148 1e-08 0
3068 3149 3148 1e-08 0
3068 3069 3150 1e-08 0
3068 3150 3149 1e-08 0
3069 3070 3150 1e-08 0
3070 3151 3150 1e-08 0
3070 3071 3152 1e-08 0
3070 3152 3151 1e-08 0
3071 3072 3152 1e-08 0
3072 3153 3152 1e-08 0
3072 3073 3154 1e-08 0
3072 3154 3153 1e-08 0
3073 3074 3154 1e-08 0
3074 3155 3154 1e-08 0
3074 3075 3156 1e-08 0
3074 3156 3155 1e-08 0
3075 3076 3156 1e-08 0
3076 3157 3156 1e-08 0
3076 3077 3158 1e-08 0
3076 3158 3157 1e-08 0
3078 3079 3160 1e-08 0
3078 3160 3159 1e-08 0
3079 3080 3160 1e-08 0
3080 3161 3160 1e-08 0
3080 3081 3162 1e-08 0
3080 3162 3161 1e-08 0
3081 3082 3162 1e-08 0
3082 3163 3162 1e-08 0
3082 3083 3164 1e-08 0
3082 3164 3163 1e-08 0
3083 3084 3164 1e-08 0
3084 3165 3164 1e-08 0
3084 3085 3166 1e-08 0
3084 3166 3165 1e-08 0
3085 3086 3166 1e-08 0
3086 3167 3166 1e-08 0
3086 3087 3168 1e-08 0
3086 3168 3167 1e-08 0
3087 3088 3168 1e-08 0
3088 3169 3168 1e-08 0
3088 3089 3170 1e-08 0
3088 3170 3169 1e-08 0
3089 3090 3170 1e-08 0
3090 3171 3170 1e-08 0
3090 3091 3172 1e-08 0
3090 3172 3171 1e-08 0
3091 3092 3172 1e-08 0
3092 3173 3172 1e-08 0
3092 3093 3174 1e-08 0
3092 3174 3173 1e-08 0
3093 3094 3174 1e-08 0
3094 3175 3174 1e-08 0
3094 3095 3176 1e-08 0
3094 3176 3175 1e-08 0
3095 3096 3176 1e-08 0
3096 3177 3176 1e-08 0
3096 3097 3178 1e-08 0
3096 3178 3177 1e-08 0
3097 3098 3178 1e-08 0
3098 3179 3178 1e-08 0
3098 3099 3180 1e-08 0
3098 3180 3179 1e-08 0
3099 3100 3180 1e-08 0
3100 3181 3180 1e-08 0
3100 3101 3182 1e-08 0
3100 3182 3181 1e-08 0
3101 3102 3182 1e-08 0
3102 3183 3182 1e-08 0
3102 3103 3184 1e-08 0.010943
3102 3184 3183 1e-08 0.00524642
3103 3104 3184 1e-08 0.0231501
3104 3185 3184 1e-08 0.0296605
3104 3105 3186 1e-08 0.0459365
3104 3186 3185 1e-08 0.0410537
3105 3106 3186 1e-08 0.056516
3106 3187 3186 1e-08 0.0622126
3106 3107 3188 1e-08 0.0760472
3106 3188 3187 1e-08 0.0719782
3107 3108 3188 1e-08 0.084999
3108 3189 3188 1e-08 0.0898818
3108 3109 3190 1e-08 0.101275
3108 3190 3189 1e-08 0.0980199
3109 3110 3190 1e-08 0.108599
3110 3191 3190 1e-08 0.112668
3110 3111 3192 1e-08 0.12162
3110 3192 3191 1e-08 0.119179
3111 3112 3192 1e-08 0.127317
3112 3193 3192 1e-08 0.130572
3112 3113 3194 1e-08 0.137082
3112 3194 3193 1e-08 0.135455
3113 3114 3194 1e-08 0.141151
3114 3195 3194 1e-08 0.143593
3114 3115 3196 1e-08 0.147662
3114 3196 3195 1e-08 0.146848
3115 3116 3196 1e-08 0.150103
3116 3197 3196 1e-08 0.151731
3116 3117 3198 1e-08 0.153358
3116 3198 3197 1e-08 0.153358
3117 3118 3198 1e-08 0.154172
3118 3199 3198 1e-08 0.154986
3118 3119 3200 1e-08 0.154172
3118 3200 3199 1e-08 0.154986
3119 3120 3200 1e-08 0.153358
3120 3201 3200 1e-08 0.153358
3120 3121 3202 1e-08 0.150103
3120 3202 3201 1e-08 0.151731
3121 3122 3202 1e-08 0.147662
3122 3203 3202 1e-08 0.146848
3122 3123 3204 1e-08 0.141151
3122 3204 3203 1e-08 0.143593
3123 3124 3204 1e-08 0.137082
3124 3205 3204 1e-08 0.135455
3124 3125 3206 1e-08 0.127317
3124 3206 3205 1e-08 0.130572
3125 3126 3206 1e-08 0.12162
3126 3207 3206 1e-08 0.119179
3126 3127 3208 1e-08 0.108599
3126 3208 3207 1e-08 0.112668
3127 3128 3208 1e-08 0.101275
3128 3209 3208 1e-08 0.0980199
3128 3129 3210 1e-08 0.084999
3128 3210 3209 1e-08 0.0898818
3129 3130 3210 1e-08 0.0760472
3130 3211 3210 1e-08 0.0719782
3130 3131 3212 1e-08 0.056516
3130 3212 3211 1e-08 0.0622126
3131 3132 3212 1e-08 0.0459365
3132 3213 3212 1e-08 0.0410537
3132 3133 3214 1e-08 0.0231501
3132 3214 3213 1e-08 0.0296605
3133 3134 3214 1e-08 0.010943
3134 3215 3214 1e-08 0.00524642
3134 3135 3216 1e-08 0
3134 3216 3215 1e-08 0
3135 3136 3216 1e-08 0
3136 3217 3216 1e-08 0
3136 3137 3218 1e-08 0
3136 3218 3217 1e-08 0
3137 3138 3218 1e-08 0
3138 3219 3218 1e-08 0
3138 3139 3220 1e-08 0
3138 3220 3219 1e-08 0
3139 3140 3220 1e-08 0
3140 3221 3220 1e-08 0
3140 3141 3222 1e-08 0
3140 3222 3221 1e-08 0
3141 3142 3222 1e-08 0
3142 3223 3222 1e-08 0
3142 3143 3224 1e-08 0
3142 3224 3223 1e-08 0
3143 3144 3224 1e-08 0
3144 3225 3224 1e-08 0
3144 3145 3226 1e-08 0
3144 3226 3225 1e-08 0
3145 3146 3226 1e-08 0
3146 3227 3226 1e-08 0
3146 3147 3228 1e-08 0
3146 3228 3227 1e-08 0
3147 3148 3228 1e-08 0
3148 3229 3228 1e-08 0
3148 3149 3230 1e-08 0
3148 3230 3229 1e-08 0
3149 3150 3230 1e-08 0
3150 3231 3230 1e-08 0
3150 3151 3232 1e-08 0
3150 3232 3231 1e-08 0
3151 3152 3232 1e-08 0
3152 3233 3232 1e-08 0
3152 3153 3234 1e-08 0
3152 3234 3233 1e-08 0
3153 3154 3234 1e-08 0
3154 3235 3234 1e-08 0
3154 3155 3236 1e-08 0
3154 3236 3235 1e-08 0
3155 3156 3236 1e-08 0
3156 3237 3236 1e-08 0
3156 3157 3238 1e-08 0
3156 3238 3237 1e-08 0
3157 3158 3238 1e-08 0
3158 3239 3238 1e-08 0
3159 3160 3240 1e-08 0
3160 3241 3240 1e-08 0
3160 3161 3242 1e-08 0
3160 3242 3241 1e-08 0
3161 3162 3242 1e-08 0
3162 3243 3242 1e-08 0
3162 3163 3244 1e-08 0
3162 3244 3243 1e-08 0
3163 3164 3244 1e-08 0
3164 3245 3244 1e-08 0
3164 3165 3246 1e-08 0
3164 3246 3245 1e-08 0
3165 3166 3246 1e-08 0
3166 3247 3246 1e-08 0
3166 3167 3248 1e-08 0
3166 3248 3247 1e-08 0
3167 3168 3248 1e-08 0
3168 3249 3248 1e-08 0
3168 3169 3250 1e-08 0
3168 3250 3249 1e-08 0
3169 3170 3250 1e-08 0
3170 3251 3250 1e-08 0
3170 3171 3252 1e-08 0
3170 3252 3251 1e-08 0
3171 3172 3252 1e-08 0
3172 3253 3252 1e-08 0
3172 3173 3254 1e-08 0
3172 3254 3253 1e-08 0
3173 3174 3254 1e-08 0
3174 3255 3254 1e-08 0
3174 3175 3256 1e-08 0
3174 3256 3255 1e-08 0
3175 3176 3256 1e-08 0
3176 3257 3256 1e-08 0
3176 3177 3258 1e-08 0
3176 3258 3257 1e-08 0
3177 3178 3258 1e-08 0
3178 3259 3258 1e-08 0
3178 3179 3260 1e-08 0
3178 3260 3259 1e-08 0
3179 3180 3260 1e-08 0
3180 3261 3260 1e-08 0
3180 3181 3262 1e-08 0
3180 3262 3261 1e-08 0
3181 3182 3262 1e-08 0
3182 3263 3262 1e-08 0
3182 3183 3264 1e-08 0
3182 3264 3263 1e-08 0
3183 3184 3264 1e-08 0.00606022
3184 3265 3264 1e-08 0.0125706
3184 3185 3266 1e-08 0.0304743
3184 3266 3265 1e-08 0.0247777
3185 3186 3266 1e-08 0.0418675
3186 3267 3266 1e-08 0.0475641
3186 3187 3268 1e-08 0.0630264
3186 3268 3267 1e-08 0.0581436
3187 3188 3268 1e-08 0.072792
3188 3269 3268 1e-08 0.0776748
3188 3189 3270 1e-08 0.0906956
3188 3270 3269 1e-08 0.0866266
3189 3190 3270 1e-08 0.0988337
3190 3271 3270 1e-08 0.102903
3190 3191 3272 1e-08 0.113482
3190 3272 3271 1e-08 0.110227
3191 3192 3272 1e-08 0.119993
3192 3273 3272 1e-08 0.123248
3192 3193 3274 1e-08 0.131386
3192 3274 3273 1e-08 0.128944
3193 3194 3274 1e-08 0.136269
3194 3275 3274 1e-08 0.13871
3194 3195 3276 1e-08 0.144407
3194 3276 3275 1e-08 0.142779
3195 3196 3276 1e-08 0.147662
3196 3277 3276 1e-08 0.149289
3196 3197 3278 1e-08 0.152545
3196 3278 3277 1e-08 0.151731
3197 3198 3278 1e-08 0.154172
3198 3279 3278 1e-08 0.154986
3198 3199 3280 1e-08 0.1558
3198 3280 3279 1e-08 0.1558
3199 3200 3280 1e-08 0.1558
3200 3281 3280 1e-08 0.1558
3200 3201 3282 1e-08 0.154172
3200 3282 3281 1e-08 0.154986
3201 3202 3282 1e-08 0.152545
3202 3283 3282 1e-08 0.151731
3202 3203 3284 1e-08 0.147662
3202 3284 3283 1e-08 0.149289
3203 3204 3284 1e-08 0.144407
3204 3285 3284 1e-08 0.142779
3204 3205 3286 1e-08 0.136269
3204 3286 3285 1e-08 0.13871
3205 3206 3286 1e-08 0.131386
3206 3287 3286 1e-08 0.128944
3206 3207 3288 1e-08 0.119993
3206 3288 3287 1e-08 0.123248
3207 3208 3288 1e-08 0.113482
3208 3289 3288 1e-08 0.110227
3208 3209 3290 1e-08 0.0988337
3208 3290 3289 1e-08 0.102903
3209 3210 3290 1e-08 0.0906956
3210 3291 3290 1e-08 0.0866266
3210 3211 3292 1e-08 0.072792
3210 3292 3291 1e-08 0.0776748
3211 3212 3292 1e-08 0.0630264
3212 3293 3292 1e-08 0.0581436
3212 3213 3294 1e-08 0.0418675
3212 3294 3293 1e-08 0.0475641
3213 3214 3294 1e-08 0.0304743
3214 3295 3294 1e-08 0.0247777
3214 3215 3296 1e-08 0.00606022
3214 3296 3295 1e-08 0.0125706
3215 3216 3296 1e-08 0
3216 3297 3296 1e-08 0
3216 3217 3298 1e-08 0
3216 3298 3297 1e-08 0
3217 3218 3298 1e-08 0
3218 3299 3298 1e-08 0
3218 3219 3300 1e-08 0
3218 3300 3299 1e-08 0
3219 3220 3300 1e-08 0
3220 3301 3300 1e-08 0
3220 3221 3302 1e-08 0
3220 3302 3301 1e-08 0
3221 3222 3302 1e-08 0
3222 3303 3302 1e-08 0
3222 3223 3304 1e-08 0
3222 3304 3303 1e-08 0
3223 3224 3304 1e-08 0
3224 3305 3304 1e-08 0
3224 3225 3306 1e-08 0
3224 3306 3305 1e-08 0
3225 3226 3306 1e-08 0
3226 3307 3306 1e-08 0
3226 3227 3308 1e-08 0
3226 3308 3307 1e-08 0
3227 3228 3308 1e-08 0
3228 3309 3308 1e-08 0
3228 3229 3310 1e-08 0
3228 3310 3309 1e-08 0
3229 3230 3310 1e-08 0
3230 3311 3310 1e-08 0
3230 3231 3312 1e-08 0
3230 3312 3311 1e-08 0
3231 3232 3312 1e-08 0
3232 3313 3312 1e-08 0
3232 3233 3314 1e-08 0
3232 3314 3313 1e-08 0
3233 3234 3314 1e-08 0
3234 3315 3314 1e-08 0
3234 3235 3316 1e-08 0
3234 3316 3315 1e-08 0
3235 3236 3316 1e-08 0
3236 3317 3316 1e-08 0
3236 3237 3318 1e-08 0
3236 3318 3317 1e-08 0
3237 3238 3318 1e-08 0
3238 3319 3318 1e-08 0
3238 3239 3320 1e-08 0
3238 3320 3319 1e-08 0
3240 3241 3322 1e-08 0
3240 3322 3321 1e-08 0
3241 3242 3322 1e-08 0
3242 3323 3322 1e-08 0
3242 3243 3324 1e-08 0
3242 3324 3323 1e-08 0
3243 3244 3324 1e-08 0
3244 3325 3324 1e-08 0
3244 3245 3326 1e-08 0
3244 3326 3325 1e-08 0
3245 3246 3326 1e-08 0
3246 3327 3326 1e-08 0
3246 3247 3328 1e-08 0
3246 3328 3327 1e-08 0
3247 3248 3328 1e-08 0
3248 3329 3328 1e-08 0
3248 3249 3330 1e-08 0
3248 3330 3329 1e-08 0
3249 3250 3330 1e-08 0
3250 3331 3330 1e-08 0
3250 3251 3332 1e-08 0
3250 3332 3331 1e-08 0
3251 3252 3332 1e-08 0
3252 3333 3332 1e-08 0
3252 3253 3334 1e-08 0
3252 3334 3333 1e-08 0
3253 3254 3334 1e-08 0
3254 3335 3334 1e-08 0
3254 3255 3336 1e-08 0
3254 3336 3335 1e-08 0
3255 3256 3336 1e-08 0
3256 3337 3336 1e-08 0
3256 3257 3338 1e-08 0
3256 3338 3337 1e-08 0
3257 3258 3338 1e-08 0
3258 3339 3338 1e-08 0
3258 3259 3340 1e-08 0
3258 3340 3339 1e-08 0
3259 3260 3340 1e-08 0
3260 3341 3340 1e-08 0
3260 3261 3342 1e-08 0
3260 3342 3341 1e-08 0
3261 3262 3342 1e-08 0
3262 3343 3342 1e-08 0
3262 3263 3344 1e-08 0
3262 3344 3343 1e-08 0
3263 3264 3344 1e-08 0
3264 3345 3344 1e-08 0
3264 3265 3346 1e-08 0.0125706
3264 3346 3345 1e-08 0.00606022
3265 3266 3346 1e-08 0.0247777
3266 3347 3346 1e-08 0.0304743
3266 3267 3348 1e-08 0.0475641
3266 3348 3347 1e-08 0.0418675
3267 3268 3348 1e-08 0.0581436
3268 3349 3348 1e-08 0.0630264
3268 3269 3350 1e-08 0.0776748
3268 3350 3349 1e-08 0.072792
3269 3270 3350 1e-08 0.0866266
3270 3351 3350 1e-08 0.0906956
3270 3271 3352 1e-08 0.102903
3270 3352 3351 1e-08 0.0988337
3271 3272 3352 1e-08 0.110227
3272 3353 3352 1e-08 0.113482
3272 3273 3354 1e-08 0.123248
3272 3354 3353 1e-08 0.119993
3273 3274 3354 1e-08 0.128944
3274 3355 3354 1e-08 0.131386
3274 3275 3356 1e-08 0.13871
3274 3356 3355 1e-08 0.136269
3275 3276 3356 1e-08 0.142779
3276 3357 3356 1e-08 0.144407
3276 3277 3358 1e-08 0.149289
3276 3358 3357 1e-08 0.147662
3277 3278 3358 1e-08 0.151731
3278 3359 3358 1e-08 0.152545
3278 3279 3360 1e-08 0.154986
3278 3360 3359 1e-08 0.154172
3279 3280 3360 1e-08 0.1558
3280 3361 3360 1e-08 0.1558
3280 3281 3362 1e-08 0.1558
3280 3362 3361 1e-08 0.1558
3281 3282 3362 1e-08 0.154986
3282 3363 3362 1e-08 0.154172
3282 3283 3364 1e-08 0.151731
3282 3364 3363 1e-08 0.152545
3283 3284 3364 1e-08 0.149289
3284 3365 3364 1e-08 0.147662
3284 3285 3366 1e-08 0.142779
3284 3366 3365 1e-08 0.144407
3285 3286 3366 1e-08 0.13871
3286 3367 3366 1e-08 0.136269
3286 3287 3368 1e-08 0.128944
3286 3368 3367 1e-08 0.131386
3287 3288 3368 1e-08 0.123248
3288 3369 3368 1e-08 0.119993
3288 3289 3370 1e-08 0.110227
3288 3370 3369 1e-08 0.113482
3289 3290 3370 1e-08 0.102903
3290 3371 3370 1e-08 0.0988337
3290 3291 3372 1e-08 0.0866266
3290 3372 3371 1e-08 0.0906956
3291 3292 3372 1e-08 0.0776748
3292 3373 3372 1e-08 0.072792
3292 3293 3374 1e-08 0.0581436
3292 3374 3373 1e-08 0.0630264
3293 3294 3374 1e-08 0.0475641
3294 3375 3374 1e-08 0.0418675
3294 3295 3376 1e-08 0.0247777
3294 3376 3375 1e-08 0.0304743
3295 3296 3376 1e-08 0.0125706
3296 3377 3376 1e-08 0.00606022
3296 3297 3378 1e-08 0
3296 3378 3377 1e-08 0
3297 3298 3378 1e-08 0
3298 3379 3378 1e-08 0
3298 3299 3380 1e-08 0
3298 3380 3379 1e-08 0
3299 3300 3380 1e-08 0
3300 3381 3380 1e-08 0
3300 3301 3382 1e-08 0
3300 3382 3381 1e-08 0
3301 3302 3382 1e-08 0
3302 3383 3382 1e-08 0
3302 3303 3384 1e-08 0
3302 3384 3383 1e-08 0
3303 3304 3384 1e-08 0
3304 3385 3384 1e-08 0
3304 3305 3386 1e-08 0
3304 3386 3385 1e-08 0
3305 3306 3386 1e-08 0
3306 3387 3386 1e-08 0
3306 3307 3388 1e-08 0
3306 3388 3387 1e-08 0
3307 3308 3388 1e-08 0
3308 3389 3388 1e-08 0
3308 3309 3390 1e-08 0
3308 3390 3389 1e-08 0
3309 3310 3390 1e-08 0
3310 3391 3390 1e-08 0
3310 3311 3392 1e-08 0
3310 3392 3391 1e-08 0
3311 3312 3392 1e-08 0
3312 3393 3392 1e-08 0
3312 3313 3394 1e-08 0
3312 3394 3393 1e-08 0
3313 3314 3394 1e-08 0
3314 3395 3394 1e-08 0
3314 3315 3396 1e-08 0
3314 3396 3395 1e-08 0
3315 3316 3396 1e-08 0
3316 3397 3396 1e-08 0
3316 3317 3398 1e-08 0
3316 3398 3397 1e-08 0
3317 3318 3398 1e-08 0
3318 3399 3398 1e-08 0
3318 3319 3400 1e-08 0
3318 3400 3399 1e-08 0
3319 3320 3400 1e-08 0
3320 3401 3400 1e-08 0
3321 3322 3402 1e-08 0
3322 3403 3402 1e-08 0
3322 3323 3404 1e-08 0
3322 3404 3403 1e-08 0
3323 3324 3404 1e-08 0
3324 3405 3404 1e-08 0
3324 3325 3406 1e-08 0
3324 3406 3405 1e-08 0
3325 3326 3406 1e-08 0
3326 3407 3406 1e-08 0
3326 3327 3408 1e-08 0
3326 3408 3407 1e-08 0
3327 3328 3408 1e-08 0
3328 3409 3408 1e-08 0
3328 3329 3410 1e-08 0
3328 3410 3409 1e-08 0
3329 3330 3410 1e-08 0
3330 3411 3410 1e-08 0
3330 3331 3412 1e-08 0
3330 3412 3411 1e-08 0
3331 3332 3412 1e-08 0
3332 3413 3412 1e-08 0
3332 3333 3414 1e-08 0
3332 3414 3413 1e-08 0
3333 3334 3414 1e-08 0
3334 3415 3414 1e-08 0
3334 3335 3416 1e-08 0
3334 3416 3415 1e-08 0
3335 3336 3416 1e-08 0
3336 3417 3416 1e-08 0
3336 3337 3418 1e-08 0
3336 3418 3417 1e-08 0
3337 3338 3418 1e-08 0
3338 3419 3418 1e-08 0
3338 3339 3420 1e-08 0
3338 3420 3419 1e-08 0
3339 3340 3420 1e-08 0
3340 3421 3420 1e-08 0
3340 3341 3422 1e-08 0
3340 3422 3421 1e-08 0
3341 3342 3422 1e-08 0
3342 3423 3422 1e-08 0
3342 3343 3424 1e-08 0
3342 3424 3423 1e-08 0
3343 3344 3424 1e-08 0
3344 3425 3424 1e-08 0
3344 3345 3426 1e-08 0
3344 3426 3425 1e-08 0
3345 3346 3426 1e-08 0.00524642
3346 3427 3426 1e-08 0.010943
3346 3347 3428 1e-08 0.0296605
3346 3428 3427 1e-08 0.0231501
3347 3348 3428 1e-08 0.0410537
3348 3429 3428 1e-08 0.0459365
3348 3349 3430 1e-08 0.0622126
3348 3430 3429 1e-08 0.056516
3349 3350 3430 1e-08 0.0719782
3350 3431 3430 1e-08 0.0760472
3350 3351 3432 1e-08 0.0898818
3350 3432 3431 1e-08 0.084999
3351 3352 3432 1e-08 0.0980199
3352 3433 3432 1e-08 0.101275
3352 3353 3434 1e-08 0.112668
3352 3434 3433 1e-08 0.108599
3353 3354 3434 1e-08 0.119179
3354 3435 3434 1e-08 0.12162
3354 3355 3436 1e-08 0.130572
3354 3436 3435 1e-08 0.127317
3355 3356 3436 1e-08 0.135455
3356 3437 3436 1e-08 0.137082
3356 3357 3438 1e-08 0.143593
3356 3438 3437 1e-08 0.141151
3357 3358 3438 1e-08 0.146848
3358 3439 3438 1e-08 0.147662
3358 3359 3440 1e-08 0.151731
3358 3440 3439 1e-08 0.150103
3359 3360 3440 1e-08 0.153358
3360 3441 3440 1e-08 0.153358
3360 3361 3442 1e-08 0.154986
3360 3442 3441 1e-08 0.154172
3361 3362 3442 1e-08 0.154986
3362 3443 3442 1e-08 0.154172
3362 3363 3444 1e-08 0.153358
3362 3444 3443 1e-08 0.153358
3363 3364 3444 1e-08 0.151731
3364 3445 3444 1e-08 0.150103
3364 3365 3446 1e-08 0.146848
3364 3446 3445 1e-08 0.147662
3365 3366 3446 1e-08 0.143593
3366 3447 3446 1e-08 0.141151
3366 3367 3448 1e-08 0.135455
3366 3448 3447 1e-08 0.137082
3367 3368 3448 1e-08 0.130572
3368 3449 3448 1e-08 0.127317
3368 3369 3450 1e-08 0.119179
3368 3450 3449 1e-08 0.12162
3369 3370 3450 1e-08 0.112668
3370 3451 3450 1e-08 0.108599
3370 3371 3452 1e-08 0.0980199
3370 3452 3451 1e-08 0.101275
3371 3372 3452 1e-08 0.0898818
3372 3453 3452 1e-08 0.084999
3372 3373 3454 1e-08 0.0719782
3372 3454 3453 1e-08 0.0760472
3373 3374 3454 1e-08 0.0622126
3374 3455 3454 1e-08 0.056516
3374 3375 3456 1e-08 0.0410537
3374 3456 3455 1e-08 0.0459365
3375 3376 3456 1e-08 0.0296605
3376 3457 3456 1e-08 0.0231501
3376 3377 3458 1e-08 0.00524642
3376 3458 3457 1e-08 0.010943
3377 3378 3458 1e-08 0
3378 3459 3458 1e-08 0
3378 3379 3460 1e-08 0
3378 3460 3459 1e-08 0
3379 3380 3460 1e-08 0
3380 3461 3460 1e-08 0
3380 3381 3462 1e-08 0
3380 3462 3461 1e-08 0
3381 3382 3462 1e-08 0
3382 3463 3462 1e-08 0
3382 3383 3464 1e-08 0
3382 3464 3463 1e-08 0
3383 3384 3464 1e-08 0
3384 3465 3464 1e-08 0
3384 3385 3466 1e-08 0
3384 3466 3465 1e-08 0
3385 3386 3466 1e-08 0
3386 3467 3466 1e-08 0
3386 3387 3468 1e-08 0
3386 3468 3467 1e-08 0
3387 3388 3468 1e-08 0
3388 3469 3468 1e-08 0
3388 3389 3470 1e-08 0
3388 3470 3469 1e-08 0
3389 3390 3470 1e-08 0
3390 3471 3470 1e-08 0
3390 3391 3472 1e-08 0
3390 3472 3471 1e-08 0
3391 3392 3472 1e-08 0
3392 3473 3472 1e-08 0
3392 3393 3474 1e-08 0
3392 3474 3473 1e-08 0
3393 3394 3474 1e-08 0
3394 3475 3474 1e-08 0
3394 3395 3476 1e-08 0
3394 3476 3475 1e-08 0
3395 3396 3476 1e-08 0
3396 3477 3476 1e-08 0
3396 3397 3478 1e-08 0
3396 3478 3477 1e-08 0
3397 3398 3478 1e-08 0
3398 3479 3478 1e-08 0
3398 3399 3480 1e-08 0
3398 3480 3479 1e-08 0
3399 3400 3480 1e-08 0
3400 3481 3480 1e-08 0
3400 3401 3482 1e-08 0
3400 3482 3481 1e-08 0
3402 3403 3484 1e-08 0
3402 3484 3483 1e-08 0
3403 3404 3484 1e-08 0
3404 3485 3484 1e-08 0
3404 3405 3486 1e-08 0
3404 3486 3485 1e-08 0
3405 3406 3486 1e-08 0
3406 3487 3486 1e-08 0
3406 3407 3488 1e-08 0
3406 3488 3487 1e-08 0
3407 3408 3488 1e-08 0
3408 3489 3488 1e-08 0
3408 3409 3490 1e-08 0
3408 3490 3489 1e-08 0
3409 3410 3490 1e-08 0
3410 3491 3490 1e-08 0
3410 3411 3492 1e-08 0
3410 3492 3491 1e-08 0
3411 3412 3492 1e-08 0
3412 3493 3492 1e-08 0
3412 3413 3494 1e-08 0
3412 3494 3493 1e-08 0
3413 3414 3494 1e-08 0
3414 3495 3494 1e-08 0
3414 3415 3496 1e-08 0
3414 3496 3495 1e-08 0
3415 3416 3496 1e-08 0
3416 3497 3496 1e-08 0
3416 3417 3498 1e-08 0
3416 3498 3497 1e-08 0
3417 3418 3498 1e-08 0
3418 3499 3498 1e-08 0
3418 3419 3500 1e-08 0
3418 3500 3499 1e-08 0
3419 3420 3500 1e-08 0
3420 3501 3500 1e-08 0
3420 3421 3502 1e-08 0
3420 3502 3501 1e-08 0
3421 3422 3502 1e-08 0
3422 3503 3502 1e-08 0
3422 3423 3504 1e-08 0
3422 3504 3503 1e-08 0
3423 3424 3504 1e-08 0
3424 3505 3504 1e-08 0
3424 3425 3506 1e-08 0
3424 3506 3505 1e-08 0
3425 3426 3506 1e-08 0
3426 3507 3506 1e-08 0
3426 3427 3508 1e-08 0.00931543
3426 3508 3507 1e-08 0.00199121
3427 3428 3508 1e-08 0.0215225
3428 3509 3508 1e-08 0.0264053
3428 3429 3510 1e-08 0.0443089
3428 3510 3509 1e-08 0.0377985
3429 3430 3510 1e-08 0.0548883
3430 3511 3510 1e-08 0.0589574
3430 3431 3512 1e-08 0.0744196
3430 3512 3511 1e-08 0.068723
3431 3432 3512 1e-08 0.0833714
3432 3513 3512 1e-08 0.0866266
3432 3433 3514 1e-08 0.0996475
3432 3514 3513 1e-08 0.0947646
3433 3434 3514 1e-08 0.106972
3434 3515 3514 1e-08 0.109413
3434 3435 3516 1e-08 0.119993
3434 3516 3515 1e-08 0.115924
3435 3436 3516 1e-08 0.125689
3436 3517 3516 1e-08 0.127317
3436 3437 3518 1e-08 0.135455
3436 3518 3517 1e-08 0.1322
3437 3438 3518 1e-08 0.139524
3438 3519 3518 1e-08 0.140338
3438 3439 3520 1e-08 0.146034
3438 3520 3519 1e-08 0.143593
3439 3440 3520 1e-08 0.148476
3440 3521 3520 1e-08 0.148476
3440 3441 3522 1e-08 0.151731
3440 3522 3521 1e-08 0.150103
3441 3442 3522 1e-08 0.152545
3442 3523 3522 1e-08 0.151731
3442 3443 3524 1e-08 0.152545
3442 3524 3523 1e-08 0.151731
3443 3444 3524 1e-08 0.151731
3444 3525 3524 1e-08 0.150103
3444 3445 3526 1e-08 0.148476
3444 3526 3525 1e-08 0.148476
3445 3446 3526 1e-08 0.146034
3446 3527 3526 1e-08 0.143593
3446 3447 3528 1e-08 0.139524
3446 3528 3527 1e-08 0.140338
3447 3448 3528 1e-08 0.135455
3448 3529 3528 1e-08 0.1322
3448 3449 3530 1e-08 0.125689
3448 3530 3529 1e-08 0.127317
3449 3450 3530 1e-08 0.119993
3450 3531 3530 1e-08 0.115924
3450 3451 3532 1e-08 0.106972
3450 3532 3531 1e-08 0.109413
3451 3452 3532 1e-08 0.0996475
3452 3533 3532 1e-08 0.0947646
3452 3453 3534 1e-08 0.0833714
3452 3534 3533 1e-08 0.0866266
3453 3454 3534 1e-08 0.0744196
3454 3535 3534 1e-08 0.068723
3454 3455 3536 1e-08 0.0548883
3454 3536 3535 1e-08 0.0589574
3455 3456 3536 1e-08 0.0443089
3456 3537 3536 1e-08 0.0377985
3456 3457 3538 1e-08 0.0215225
3456 3538 3537 1e-08 0.0264053
3457 3458 3538 1e-08 0.00931543
3458 3539 3538 1e-08 0.00199121
3458 3459 3540 1e-08 0
3458 3540 3539 1e-08 0
3459 3460 3540 1e-08 0
3460 3541 3540 1e-08 0
3460 3461 3542 1e-08 0
3460 3542 3541 1e-08 0
3461 3462 3542 1e-08 0
3462 3543 3542 1e-08 0
3462 3463 3544 1e-08 0
3462 3544 3543 1e-08 0
3463 3464 3544 1e-08 0
3464 3545 3544 1e-08 0
3464 3465 3546 1e-08 0
3464 3546 3545 1e-08 0
3465 3466 3546 1e-08 0
3466 3547 3546 1e-08 0
3466 3467 3548 1e-08 0
3466 3548 3547 1e-08 0
3467 3468 3548 1e-08 0
3468 3549 3548 1e-08 0
3468 3469 3550 1e-08 0
3468 3550 3549 1e-08 0
3469 3470 3550 1e-08 0
3470 3551 3550 1e-08 0
3470 3471 3552 1e-08 0
3470 3552 3551 1e-08 0
3471 3472 3552 1e-08 0
3472 3553 3552 1e-08 0
3472 3473 3554 1e-08 0
3472 3554 3553 1e-08 0
3473 3474 3554 1e-08 0
3474 3555 3554 1e-08 0
3474 3475 3556 1e-08 0
3474 3556 3555 1e-08 0
3475 3476 3556 1e-08 0
3476 3557 3556 1e-08 0
3476 3477 3558 1e-08 0
3476 3558 3557 1e-08 0
3477 3478 3558 1e-08 0
3478 3559 3558 1e-08 0
3478 3479 3560 1e-08 0
3478 3560 3559 1e-08 0
3479 3480 3560 1e-08 0
3480 3561 3560 1e-08 0
3480 3481 3562 1e-08 0
3480 3562 3561 1e-08 0
3481 3482 3562 1e-08 0
3482 3563 3562 1e-08 0
3483 3484 3564 1e-08 0
3484 3565 3564 1e-08 0
3484 3485 3566 1e-08 0
3484 3566 3565 1e-08 0
3485 3486 3566 1e-08 0
3486 3567 3566 1e-08 0
3486 3487 3568 1e-08 0
3486 3568 3567 1e-08 0
3487 3488 3568 1e-08 0
3488 3569 3568 1e-08 0
3488 3489 3570 1e-08 0
3488 3570 3569 1e-08 0
3489 3490 3570 1e-08 0
3490 3571 3570 1e-08 0
3490 3491 3572 1e-08 0
3490 3572 3571 1e-08 0
3491 3492 3572 1e-08 0
3492 3573 3572 1e-08 0
3492 3493 3574 1e-08 0
3492 3574 3573 1e-08 0
3493 3494 3574 1e-08 0
3494 3575 3574 1e-08 0
3494 3495 3576 1e-08 0
3494 3576 3575 1e-08 0
3495 3496 3576 1e-08 0
3496 3577 3576 1e-08 0
3496 3497 3578 1e-08 0
3496 3578 3577 1e-08 0
3497 3498 3578 1e-08 0
3498 3579 3578 1e-08 0
3498 3499 3580 1e-08 0
3498 3580 3579 1e-08 0
3499 3500 3580 1e-08 0
3500 3581 3580 1e-08 0
3500 3501 3582 1e-08 0
3500 3582 3581 1e-08 0
3501 3502 3582 1e-08 0
3502 3583 3582 1e-08 0
3502 3503 3584 1e-08 0
3502 3584 3583 1e-08 0
3503 3504 3584 1e-08 0
3504 3585 3584 1e-08 0
3504 3505 3586 1e-08 0
3504 3586 3585 1e-08 0
3505 3506 3586 1e-08 0
3506 3587 3586 1e-08 0
3506 3507 3588 1e-08 0
3506 3588 3587 1e-08 0
3507 3508 3588 1e-08 0
3508 3589 3588 1e-08 0.00443262
3508 3509 3590 1e-08 0.0239639
3508 3590 3589 1e-08 0.0166396
3509 3510 3590 1e-08 0.0353571
3510 3591 3590 1e-08 0.0394261
3510 3511 3592 1e-08 0.056516
3510 3592 3591 1e-08 0.0500055
3511 3512 3592 1e-08 0.0662816
3512 3593 3592 1e-08 0.0695368
3512 3513 3594 1e-08 0.0841852
3512 3594 3593 1e-08 0.0784886
3513 3514 3594 1e-08 0.0923232
3514 3595 3594 1e-08 0.0947646
3514 3515 3596 1e-08 0.106972
3514 3596 3595 1e-08 0.102089
3515 3516 3596 1e-08 0.113482
3516 3597 3596 1e-08 0.11511
3516 3517 3598 1e-08 0.124875
3516 3598 3597 1e-08 0.120806
3517 3518 3598 1e-08 0.129758
3518 3599 3598 1e-08 0.130572
3518 3519 3600 1e-08 0.137896
3518 3600 3599 1e-08 0.134641
3519 3520 3600 1e-08 0.141151
3520 3601 3600 1e-08 0.141151
3520 3521 3602 1e-08 0.146034
3520 3602 3601 1e-08 0.143593
3521 3522 3602 1e-08 0.147662
3522 3603 3602 1e-08 0.146848
3522 3523 3604 1e-08 0.149289
3522 3604 3603 1e-08 0.147662
3523 3524 3604 1e-08 0.149289
3524 3605 3604 1e-08 0.147662
3524 3525 3606 1e-08 0.147662
3524 3606 3605 1e-08 0.146848
3525 3526 3606 1e-08 0.146034
3526 3607 3606 1e-08 0.143593
3526 3527 3608 1e-08 0.141151
3526 3608 3607 1e-08 0.141151
3527 3528 3608 1e-08 0.137896
3528 3609 3608 1e-08 0.134641
3528 3529 3610 1e-08 0.129758
3528 3610 3609 1e-08 0.130572
3529 3530 3610 1e-08 0.124875
3530 3611 3610 1e-08 0.120806
3530 3531 3612 1e-08 0.113482
3530 3612 3611 1e-08 0.11511
3531 3532 3612 1e-08 0.106972
3532 3613 3612 1e-08 0.102089
3532 3533 3614 1e-08 0.0923232
3532 3614 3613 1e-08 0.0947646
3533 3534 3614 1e-08 0.0841852
3534 3615 3614 1e-08 0.0784886
3534 3535 3616 1e-08 0.0662816
3534 3616 3615 1e-08 0.0695368
3535 3536 3616 1e-08 0.056516
3536 3617 3616 1e-08 0.0500055
3536 3537 3618 1e-08 0.0353571
3536 3618 3617 1e-08 0.0394261
3537 3538 3618 1e-08 0.0239639
3538 3619 3618 1e-08 0.0166396
3538 3539 3620 1e-08 0
3538 3620 3619 1e-08 0.00443262
3539 3540 3620 1e-08 0
3540 3621 3620 1e-08 0
3540 3541 3622 1e-08 0
3540 3622 3621 1e-08 0
3541 3542 3622 1e-08 0
3542 3623 3622 1e-08 0
3542 3543 3624 1e-08 0
3542 3624 3623 1e-08 0
3543 3544 3624 1e-08 0
3544 3625 3624 1e-08 0
3544 3545 3626 1e-08 0
3544 3626 3625 1e-08 0
3545 3546 3626 1e-08 0
3546 3627 3626 1e-08 0
3546 3547 3628 1e-08 0
3546 3628 3627 1e-08 0
3547 3548 3628 1e-08 0
3548 3629 3628 1e-08 0
3548 3549 3630 1e-08 0
3548 3630 3629 1e-08 0
3549 3550 3630 1e-08 0
3550 3631 3630 1e-08 0
3550 3551 3632 1e-08 0
3550 3632 3631 1e-08 0
3551 3552 3632 1e-08 0
3552 3633 3632 1e-08 0
3552 3553 3634 1e-08 0
3552 3634 3633 1e-08 0
3553 3554 3634 1e-08 0
3554 3635 3634 1e-08 0
3554 3555 3636 1e-08 0
3554 3636 3635 1e-08 0
3555 3556 3636 1e-08 0
3556 3637 3636 1e-08 0
3556 3557 3638 1e-08 0
3556 3638 3637 1e-08 0
3557 3558 3638 1e-08 0
3558 3639 3638 1e-08 0
3558 3559 3640 1e-08 0
3558 3640 3639 1e-08 0
3559 3560 3640 1e-08 0
3560 3641 3640 1e-08 0
3560 3561 3642 1e-08 0
3560 3642 3641 1e-08 0
3561 3562 3642 1e-08 0
3562 3643 3642 1e-08 0
3562 3563 3644 1e-08 0
3562 3644 3643 1e-08 0
3564 3565 3646 1e-08 0
3564 3646 3645 1e-08 0
3565 3566 3646 1e-08 0
3566 3647 3646 1e-08 0
3566 3567 3648 1e-08 0
3566 3648 3647 1e-08 0
3567 3568 3648 1e-08 0
3568 3649 3648 1e-08 0
3568 3569 3650 1e-08 0
3568 3650 3649 1e-08 0
3569 3570 3650 1e-08 0
3570 3651 3650 1e-08 0
3570 3571 3652 1e-08 0
3570 3652 3651 1e-08 0
3571 3572 3652 1e-08 0
3572 3653 3652 1e-08 0
3572 3573 3654 1e-08 0
3572 3654 3653 1e-08 0
3573 3574 3654 1e-08 0
3574 3655 3654 1e-08 0
3574 3575 3656 1e-08 0
3574 3656 3655 1e-08 0
3575 3576 3656 1e-08 0
3576 3657 3656 1e-08 0
3576 3577 3658 1e-08 0
3576 3658 3657 1e-08 0
3577 3578 3658 1e-08 0
3578 3659 3658 1e-08 0
3578 3579 3660 1e-08 0
3578 3660 3659 1e-08 0
3579 3580 3660 1e-08 0
3580 3661 3660 1e-08 0
3580 3581 3662 1e-08 0
3580 3662 3661 1e-08 0
3581 3582 3662 1e-08 0
3582 3663 3662 1e-08 0
3582 3583 3664 1e-08 0
3582 3664 3663 1e-08 0
3583 3584 3664 1e-08 0
3584 3665 3664 1e-08 0
3584 3585 3666 1e-08 0
3584 3666 3665 1e-08 0
3585 3586 3666 1e-08 0
3586 3667 3666 1e-08 0
3586 3587 3668 1e-08 0
3586 3668 3667 1e-08 0
3587 3588 3668 1e-08 0
3588 3669 3668 1e-08 0
3588 3589 3670 1e-08 0.00117741
3588 3670 3669 1e-08 0
3589 3590 3670 1e-08 0.0133844
3590 3671 3670 1e-08 0.0174535
3590 3591 3672 1e-08 0.0361709
3590 3672 3671 1e-08 0.0288467
3591 3592 3672 1e-08 0.0467503
3592 3673 3672 1e-08 0.0500055
3592 3593 3674 1e-08 0.0662816
3592 3674 3673 1e-08 0.0597712
3593 3594 3674 1e-08 0.0752334
3594 3675 3674 1e-08 0.0776748
3594 3595 3676 1e-08 0.0915094
3594 3676 3675 1e-08 0.0858128
3595 3596 3676 1e-08 0.0988337
3596 3677 3676 1e-08 0.100461
3596 3597 3678 1e-08 0.111854
3596 3678 3677 1e-08 0.106972
3597 3598 3678 1e-08 0.117551
3598 3679 3678 1e-08 0.118365
3598 3599 3680 1e-08 0.127317
3598 3680 3679 1e-08 0.123248
3599 3600 3680 1e-08 0.131386
3600 3681 3680 1e-08 0.131386
3600 3601 3682 1e-08 0.137896
3600 3682 3681 1e-08 0.134641
3601 3602 3682 1e-08 0.140338
3602 3683 3682 1e-08 0.139524
3602 3603 3684 1e-08 0.143593
3602 3684 3683 1e-08 0.141151
3603 3604 3684 1e-08 0.144407
3604 3685 3684 1e-08 0.142779
3604 3605 3686 1e-08 0.144407
3604 3686 3685 1e-08 0.142779
3605 3606 3686 1e-08 0.143593
3606 3687 3686 1e-08 0.141151
3606 3607 3688 1e-08 0.140338
3606 3688 3687 1e-08 0.139524
3607 3608 3688 1e-08 0.137896
3608 3689 3688 1e-08 0.134641
3608 3609 3690 1e-08 0.131386
3608 3690 3689 1e-08 0.131386
3609 3610 3690 1e-08 0.127317
3610 3691 3690 1e-08 0.123248
3610 3611 3692 1e-08 0.117551
3610 3692 3691 1e-08 0.118365
3611 3612 3692 1e-08 0.111854
3612 3693 3692 1e-08 0.106972
3612 3613 3694 1e-08 0.0988337
3612 3694 3693 1e-08 0.100461
3613 3614 3694 1e-08 0.0915094
3614 3695 3694 1e-08 0.0858128
3614 3615 3696 1e-08 0.0752334
3614 3696 3695 1e-08 0.0776748
3615 3616 3696 1e-08 0.0662816
3616 3697 3696 1e-08 0.0597712
3616 3617 3698 1e-08 0.0467503
3616 3698 3697 1e-08 0.0500055
3617 3618 3698 1e-08 0.0361709
3618 3699 3698 1e-08 0.0288467
3618 3619 3700 1e-08 0.0133844
3618 3700 3699 1e-08 0.0174535
3619 3620 3700 1e-08 0.00117741
3620 3701 3700 1e-08 0
3620 3621 3702 1e-08 0
3620 3702 3701 1e-08 0
3621 3622 3702 1e-08 0
3622 3703 3702 1e-08 0
3622 3623 3704 1e-08 0
3622 3704 3703 1e-08 0
3623 3624 3704 1e-08 0
3624 3705 3704 1e-08 0
3624 3625 3706 1e-08 0
3624 3706 3705 1e-08 0
3625 3626 3706 1e-08 0
3626 3707 3706 1e-08 0
3626 3627 3708 1e-08 0
3626 3708 3707 1e-08 0
3627 3628 3708 1e-08 0
3628 3709 3708 1e-08 0
3628 3629 3710 1e-08 0
3628 3710 3709 1e-08 0
3629 3630 3710 1e-08 0
3630 3711 3710 1e-08 0
3630 3631 3712 1e-08 0
3630 3712 3711 1e-08 0
3631 3632 3712 1e-08 0
3632 3713 3712 1e-08 0
3632 3633 3714 1e-08 0
3632 3714 3713 1e-08 0
3633 3634 3714 1e-08 0
3634 3715 3714 1e-08 0
3634 3635 3716 1e-08 0
3634 3716 3715 1e-08 0
3635 3636 3716 1e-08 0
3636 3717 3716 1e-08 0
3636 3637 3718 1e-08 0
3636 3718 3717 1e-08 0
3637 3638 3718 1e-08 0
3638 3719 3718 1e-08 0
3638 3639 3720 1e-08 0
3638 3720 3719 1e-08 0
3639 3640 3720 1e-08 0
3640 3721 3720 1e-08 0
3640 3641 3722 1e-08 0
3640 3722 3721 1e-08 0
3641 3642 3722 1e-08 0
3642 3723 3722 1e-08 0
3642 3643 3724 1e-08 0
3642 3724 3723 1e-08 0
3643 3644 3724 1e-08 0
3644 3725 3724 1e-08 0
3645 3646 3726 1e-08 0
3646 3727 3726 1e-08 0
3646 3647 3728 1e-08 0
3646 3728 3727 1e-08 0
3647 3648 3728 1e-08 0
3648 3729 3728 1e-08 0
3648 3649 3730 1e-08 0
3648 3730 3729 1e-08 0
3649 3650 3730 1e-08 0
3650 3731 3730 1e-08 0
3650 3651 3732 1e-08 0
3650 3732 3731 1e-08 0
3651 3652 3732 1e-08 0
3652 3733 3732 1e-08 0
3652 3653 3734 1e-08 0
3652 3734 3733 1e-08 0
3653 3654 3734 1e-08 0
3654 3735 3734 1e-08 0
3654 3655 3736 1e-08 0
3654 3736 3735 1e-08 0
3655 3656 3736 1e-08 0
3656 3737 3736 1e-08 0
3656 3657 3738 1e-08 0
3656 3738 3737 1e-08 0
3657 3658 3738 1e-08 0
3658 3739 3738 1e-08 0
3658 3659 3740 1e-08 0
3658 3740 3739 1e-08 0
3659 3660 3740 1e-08 0
3660 3741 3740 1e-08 0
3660 3661 3742 1e-08 0
3660 3742 3741 1e-08 0
3661 3662 3742 1e-08 0
3662 3743 3742 1e-08 0
3662 3663 3744 1e-08 0
3662 3744 3743 1e-08 0
3663 3664 3744 1e-08 0
3664 3745 3744 1e-08 0
3664 3665 3746 1e-08 0
3664 3746 3745 1e-08 0
3665 3666 3746 1e-08 0
3666 3747 3746 1e-08 0
3666 3667 3748 1e-08 0
3666 3748 3747 1e-08 0
3667 3668 3748 1e-08 0
3668 3749 3748 1e-08 0
3668 3669 3750 1e-08 0
3668 3750 3749 1e-08 0
3669 3670 3750 1e-08 0
3670 3751 3750 1e-08 0
3670 3671 3752 1e-08 0.0133844
3670 3752 3751 1e-08 0.00524642
3671 3672 3752 1e-08 0.0247777
3672 3753 3752 1e-08 0.0280329
3672 3673 3754 1e-08 0.0459365
3672 3754 3753 1e-08 0.0386123
3673 3674 3754 1e-08 0.0557021
3674 3755 3754 1e-08 0.0581436
3674 3675 3756 1e-08 0.0736058
3674 3756 3755 1e-08 0.0670954
3675 3676 3756 1e-08 0.0817438
3676 3757 3756 1e-08 0.0833714
3676 3677 3758 1e-08 0.0963923
3676 3758 3757 1e-08 0.0906956
3677 3678 3758 1e-08 0.102903
3678 3759 3758 1e-08 0.103716
3678 3679 3760 1e-08 0.114296
3678 3760 3759 1e-08 0.109413
3679 3680 3760 1e-08 0.119179
3680 3761 3760 1e-08 0.119179
3680 3681 3762 1e-08 0.127317
3680 3762 3761 1e-08 0.123248
3681 3682 3762 1e-08 0.130572
3682 3763 3762 1e-08 0.129758
3682 3683 3764 1e-08 0.135455
3682 3764 3763 1e-08 0.1322
3683 3684 3764 1e-08 0.137082
3684 3765 3764 1e-08 0.135455
3684 3685 3766 1e-08 0.13871
3684 3766 3765 1e-08 0.136269
3685 3686 3766 1e-08 0.13871
3686 3767 3766 1e-08 0.136269
3686 3687 3768 1e-08 0.137082
3686 3768 3767 1e-08 0.135455
3687 3688 3768 1e-08 0.135455
3688 3769 3768 1e-08 0.1322
3688 3689 3770 1e-08 0.130572
3688 3770 3769 1e-08 0.129758
3689 3690 3770 1e-08 0.127317
3690 3771 3770 1e-08 0.123248
3690 3691 3772 1e-08 0.119179
3690 3772 3771 1e-08 0.119179
3691 3692 3772 1e-08 0.114296
3692 3773 3772 1e-08 0.109413
3692 3693 3774 1e-08 0.102903
3692 3774 3773 1e-08 0.103716
3693 3694 3774 1e-08 0.0963923
3694 3775 3774 1e-08 0.0906956
3694 3695 3776 1e-08 0.0817438
3694 3776 3775 1e-08 0.0833714
3695 3696 3776 1e-08 0.0736058
3696 3777 3776 1e-08 0.0670954
3696 3697 3778 1e-08 0.0557021
3696 3778 3777 1e-08 0.0581436
3697 3698 3778 1e-08 0.0459365
3698 3779 3778 1e-08 0.0386123
3698 3699 3780 1e-08 0.0247777
3698 3780 3779 1e-08 0.0280329
3699 3700 3780 1e-08 0.0133844
3700 3781 3780 1e-08 0.00524642
3700 3701 3782 1e-08 0
3700 3782 3781 1e-08 0
3701 3702 3782 1e-08 0
3702 3783 3782 1e-08 0
3702 3703 3784 1e-08 0
3702 3784 3783 1e-08 0
3703 3704 3784 1e-08 0
3704 3785 3784 1e-08 0
3704 3705 3786 1e-08 0
3704 3786 3785 1e-08 0
3705 3706 3786 1e-08 0
3706 3787 3786 1e-08 0
3706 3707 3788 1e-08 0
3706 3788 3787 1e-08 0
3707 3708 3788 1e-08 0
3708 3789 3788 1e-08 0
3708 3709 3790 1e-08 0
3708 3790 3789 1e-08 0
3709 3710 3790 1e-08 0
3710 3791 3790 1e-08 0
3710 3711 3792 1e-08 0
3710 3792 3791 1e-08 0
3711 3712 3792 1e-08 0
3712 3793 3792 1e-08 0
3712 3713 3794 1e-08 0
3712 3794 3793 1e-08 0
3713 3714 3794 1e-08 0
3714 3795 3794 1e-08 0
3714 3715 3796 1e-08 0
3714 3796 3795 1e-08 0
3715 3716 3796 1e-08 0
3716 3797 3796 1e-08 0
3716 3717 3798 1e-08 0
3716 3798 3797 1e-08 0
3717 3718 3798 1e-08 0
3718 3799 3798 1e-08 0
3718 3719 3800 1e-08 0
3718 3800 3799 1e-08 0
3719 3720 3800 1e-08 0
3720 3801 3800 1e-08 0
3720 3721 3802 1e-08 0
3720 3802 3801 1e-08 0
3721 3722 3802 1e-08 0
3722 3803 3802 1e-08 0
3722 3723 3804 1e-08 0
3722 3804 3803 1e-08 0
3723 3724 3804 1e-08 0
3724 3805 3804 1e-08 0
3724 3725 3806 1e-08 0
3724 3806 3805 1e-08 0
3726 3727 3808 1e-08 0
3726 3808 3807 1e-08 0
3727 3728 3808 1e-08 0
3728 3809 3808 1e-08 0
3728 3729 3810 1e-08 0
3728 3810 3809 1e-08 0
3729 3730 3810 1e-08 0
3730 3811 3810 1e-08 0
3730 3731 3812 1e-08 0
3730 3812 3811 1e-08 0
3731 3732 3812 1e-08 0
3732 3813 3812 1e-08 0
3732 3733 3814 1e-08 0
3732 3814 3813 1e-08 0
3733 3734 3814 1e-08 0
3734 3815 3814 1e-08 0
3734 3735 3816 1e-08 0
3734 3816 3815 1e-08 0
3735 3736 3816 1e-08 0
3736 3817 3816 1e-08 0
3736 3737 3818 1e-08 0
3736 3818 3817 1e-08 0
3737 3738 3818 1e-08 0
3738 3819 3818 1e-08 0
3738 3739 3820 1e-08 0
3738 3820 3819 1e-08 0
3739 3740 3820 1e-08 0
3740 3821 3820 1e-08 0
3740 3741 3822 1e-08 0
3740 3822 3821 1e-08 0
3741 3742 3822 1e-08 0
3742 3823 3822 1e-08 0
3742 3743 3824 1e-08 0
3742 3824 3823 1e-08 0
3743 3744 3824 1e-08 0
3744 3825 3824 1e-08 0
3744 3745 3826 1e-08 0
3744 3826 3825 1e-08 0
3745 3746 3826 1e-08 0
3746 3827 3826 1e-08 0
3746 3747 3828 1e-08 0
3746 3828 3827 1e-08 0
3747 3748 3828 1e-08 0
3748 3829 3828 1e-08 0
3748 3749 3830 1e-08 0
3748 3830 3829 1e-08 0
3749 3750 3830 1e-08 0
3750 3831 3830 1e-08 0
3750 3751 3832 1e-08 0
3750 3832 3831 1e-08 0
3751 3752 3832 1e-08 0.000363607
3752 3833 3832 1e-08 0.00361882
3752 3753 3834 1e-08 0.0231501
3752 3834 3833 1e-08 0.015012
3753 3754 3834 1e-08 0.0337295
3754 3835 3834 1e-08 0.0361709
3754 3755 3836 1e-08 0.0532607
3754 3836 3835 1e-08 0.0459365
3755 3756 3836 1e-08 0.0622126
3756 3837 3836 1e-08 0.0638402
3756 3757 3838 1e-08 0.0784886
3756 3838 3837 1e-08 0.0719782
3757 3758 3838 1e-08 0.0858128
3758 3839 3838 1e-08 0.0866266
3758 3759 3840 1e-08 0.0988337
3758 3840 3839 1e-08 0.093137
3759 3760 3840 1e-08 0.10453
3760 3841 3840 1e-08 0.10453
3760 3761 3842 1e-08 0.114296
3760 3842 3841 1e-08 0.109413
3761 3762 3842 1e-08 0.118365
3762 3843 3842 1e-08 0.117551
3762 3763 3844 1e-08 0.124875
3762 3844 3843 1e-08 0.120806
3763 3764 3844 1e-08 0.127317
3764 3845 3844 1e-08 0.125689
3764 3765 3846 1e-08 0.130572
3764 3846 3845 1e-08 0.127317
3765 3766 3846 1e-08 0.131386
3766 3847 3846 1e-08 0.128944
3766 3767 3848 1e-08 0.131386
3766 3848 3847 1e-08 0.128944
3767 3768 3848 1e-08 0.130572
3768 3849 3848 1e-08 0.127317
3768 3769 3850 1e-08 0.127317
3768 3850 3849 1e-08 0.125689
3769 3770 3850 1e-08 0.124875
3770 3851 3850 1e-08 0.120806
3770 3771 3852 1e-08 0.118365
3770 3852 3851 1e-08 0.117551
3771 3772 3852 1e-08 0.114296
3772 3853 3852 1e-08 0.109413
3772 3773 3854 1e-08 0.10453
3772 3854 3853 1e-08 0.10453
3773 3774 3854 1e-08 0.0988337
3774 3855 3854 1e-08 0.093137
3774 3775 3856 1e-08 0.0858128
3774 3856 3855 1e-08 0.0866266
3775 3776 3856 1e-08 0.0784886
3776 3857 3856 1e-08 0.0719782
3776 3777 3858 1e-08 0.0622126
3776 3858 3857 1e-08 0.0638402
3777 3778 3858 1e-08 0.0532607
3778 3859 3858 1e-08 0.0459365
3778 3779 3860 1e-08 0.0337295
3778 3860 3859 1e-08 0.0361709
3779 3780 3860 1e-08 0.0231501
3780 3861 3860 1e-08 0.015012
3780 3781 3862 1e-08 0.000363607
3780 3862 3861 1e-08 0.00361882
3781 3782 3862 1e-08 0
3782 3863 3862 1e-08 0
3782 3783 3864 1e-08 0
3782 3864 3863 1e-08 0
3783 3784 3864 1e-08 0
3784 3865 3864 1e-08 0
3784 3785 3866 1e-08 0
3784 3866 3865 1e-08 0
3785 3786 3866 1e-08 0
3786 3867 3866 1e-08 0
3786 3787 3868 1e-08 0
3786 3868 3867 1e-08 0
3787 3788 3868 1e-08 0
3788 3869 3868 1e-08 0
3788 3789 3870 1e-08 0
3788 3870 3869 1e-08 0
3789 3790 3870 1e-08 0
3790 3871 3870 1e-08 0
3790 3791 3872 1e-08 0
3790 3872 3871 1e-08 0
3791 3792 3872 1e-08 0
3792 3873 3872 1e-08 0
3792 3793 3874 1e-08 0
3792 3874 3873 1e-08 0
3793 3794 3874 1e-08 0
3794 3875 3874 1e-08 0
3794 3795 3876 1e-08 0
3794 3876 3875 1e-08 0
3795 3796 3876 1e-08 0
3796 3877 3876 1e-08 0
3796 3797 3878 1e-08 0
3796 3878 3877 1e-08 0
3797 3798 3878 1e-08 0
3798 3879 3878 1e-08 0
3798 3799 3880 1e-08 0
3798 3880 3879 1e-08 0
3799 3800 3880 1e-08 0
3800 3881 3880 1e-08 0
3800 3801 3882 1e-08 0
3800 3882 3881 1e-08 0
3801 3802 3882 1e-08 0
3802 3883 3882 1e-08 0
3802 3803 3884 1e-08 0
3802 3884 3883 1e-08 0
3803 3804 3884 1e-08 0
3804 3885 3884 1e-08 0
3804 3805 3886 1e-08 0
3804 3886 3885 1e-08 0
3805 3806 3886 1e-08 0
3806 3887 3886 1e-08 0
3807 3808 3888 1e-08 0
3808 3889 3888 1e-08 0
3808 3809 3890 1e-08 0
3808 3890 3889 1e-08 0
3809 3810 3890 1e-08 0
3810 3891 3890 1e-08 0
3810 3811 3892 1e-08 0
3810 3892 3891 1e-08 0
3811 3812 3892 1e-08 0
3812 3893 3892 1e-08 0
3812 3813 3894 1e-08 0
3812 3894 3893 1e-08 0
3813 3814 3894 1e-08 0
3814 3895 3894 1e-08 0
3814 3815 3896 1e-08 0
3814 3896 3895 1e-08 0
3815 3816 3896 1e-08 0
3816 3897 3896 1e-08 0
3816 3817 3898 1e-08 0
3816 3898 3897 1e-08 0
3817 3818 3898 1e-08 0
3818 3899 3898 1e-08 0
3818 3819 3900 1e-08 0
3818 3900 3899 1e-08 0
3819 3820 3900 1e-08 0
3820 3901 3900 1e-08 0
3820 3821 3902 1e-08 0
3820 3902 3901 1e-08 0
3821 3822 3902 1e-08 0
3822 3903 3902 1e-08 0
3822 3823 3904 1e-08 0
3822 3904 3903 1e-08 0
3823 3824 3904 1e-08 0
3824 3905 3904 1e-08 0
3824 3825 3906 1e-08 0
3824 3906 3905 1e-08 0
3825 3826 3906 1e-08 0
3826 3907 3906 1e-08 0
3826 3827 3908 1e-08 0
3826 3908 3907 1e-08 0
3827 3828 3908 1e-08 0
3828 3909 3908 1e-08 0
3828 3829 3910 1e-08 0
3828 3910 3909 1e-08 0
3829 3830 3910 1e-08 0
3830 3911 3910 1e-08 0
3830 3831 3912 1e-08 0
3830 3912 3911 1e-08 0
3831 3832 3912 1e-08 0
3832 3913 3912 1e-08 0
3832 3833 3914 1e-08 0
3832 3914 3913 1e-08 0
3833 3834 3914 1e-08 0.00931543
3834 3915 3914 1e-08 0.0117568
3834 3835 3916 1e-08 0.0304743
3834 3916 3915 1e-08 0.0223363
3835 3836 3916 1e-08 0.0402399
3836 3917 3916 1e-08 0.0418675
3836 3837 3918 1e-08 0.0581436
3836 3918 3917 1e-08 0.0508193
3837 3838 3918 1e-08 0.0662816
3838 3919 3918 1e-08 0.0670954
3838 3839 3920 1e-08 0.08093
3838 3920 3919 1e-08 0.0744196
3839 3840 3920 1e-08 0.0874404
3840 3921 3920 1e-08 0.0874404
3840 3841 3922 1e-08 0.0988337
3840 3922 3921 1e-08 0.093137
3841 3842 3922 1e-08 0.103716
3842 3923 3922 1e-08 0.102903
3842 3843 3924 1e-08 0.111854
3842 3924 3923 1e-08 0.106972
3843 3844 3924 1e-08 0.11511
3844 3925 3924 1e-08 0.113482
3844 3845 3926 1e-08 0.119993
3844 3926 3925 1e-08 0.115924
3845 3846 3926 1e-08 0.12162
3846 3927 3926 1e-08 0.119179
3846 3847 3928 1e-08 0.123248
3846 3928 3927 1e-08 0.119993
3847 3848 3928 1e-08 0.123248
3848 3929 3928 1e-08 0.119993
3848 3849 3930 1e-08 0.12162
3848 3930 3929 1e-08 0.119179
3849 3850 3930 1e-08 0.119993
3850 3931 3930 1e-08 0.115924
3850 3851 3932 1e-08 0.11511
3850 3932 3931 1e-08 0.113482
3851 3852 3932 1e-08 0.111854
3852 3933 3932 1e-08 0.106972
3852 3853 3934 1e-08 0.103716
3852 3934 3933 1e-08 0.102903
3853 3854 3934 1e-08 0.0988337
3854 3935 3934 1e-08 0.093137
3854 3855 3936 1e-08 0.0874404
3854 3936 3935 1e-08 0.0874404
3855 3856 3936 1e-08 0.08093
3856 3937 3936 1e-08 0.0744196
3856 3857 3938 1e-08 0.0662816
3856 3938 3937 1e-08 0.0670954
3857 3858 3938 1e-08 0.0581436
3858 3939 3938 1e-08 0.0508193
3858 3859 3940 1e-08 0.0402399
3858 3940 3939 1e-08 0.0418675
3859 3860 3940 1e-08 0.0304743
3860 3941 3940 1e-08 0.0223363
3860 3861 3942 1e-08 0.00931543
3860 3942 3941 1e-08 0.0117568
3861 3862 3942 1e-08 0
3862 3943 3942 1e-08 0
3862 3863 3944 1e-08 0
3862 3944 3943 1e-08 0
3863 3864 3944 1e-08 0
3864 3945 3944 1e-08 0
3864 3865 3946 1e-08 0
3864 3946 3945 1e-08 0
3865 3866 3946 1e-08 0
3866 3947 3946 1e-08 0
3866 3867 3948 1e-08 0
3866 3948 3947 1e-08 0
3867 3868 3948 1e-08 0
3868 3949 3948 1e-08 0
3868 3869 3950 1e-08 0
3868 3950 3949 1e-08 0
3869 3870 3950 1e-08 0
3870 3951 3950 1e-08 0
3870 3871 3952 1e-08 0
3870 3952 3951 1e-08 0
3871 3872 3952 1e-08 0
3872 3953 3952 1e-08 0
3872 3873 3954 1e-08 0
3872 3954 3953 1e-08 0
3873 3874 3954 1e-08 0
3874 3955 3954 1e-08 0
3874 3875 3956 1e-08 0
3874 3956 3955 1e-08 0
3875 3876 3956 1e-08 0
3876 3957 3956 1e-08 0
3876 3877 3958 1e-08 0
3876 3958 3957 1e-08 0
3877 3878 3958 1e-08 0
3878 3959 3958 1e-08 0
3878 3879 3960 1e-08 0
3878 3960 3959 1e-08 0
3879 3880 3960 1e-08 0
3880 3961 3960 1e-08 0
3880 3881 3962 1e-08 0
3880 3962 3961 1e-08 0
3881 3882 3962 1e-08 0
3882 3963 3962 1e-08 0
3882 3883 3964 1e-08 0
3882 3964 3963 1e-08 0
3883 3884 3964 1e-08 0
3884 3965 3964 1e-08 0
3884 3885 3966 1e-08 0
3884 3966 3965 1e-08 0
3885 3886 3966 1e-08 0
3886 3967 3966 1e-08 0
3886 3887 3968 1e-08 0
3886 3968 3967 1e-08 0
3888 3889 3970 1e-08 0
3888 3970 3969 1e-08 0
3889 3890 3970 1e-08 0
3890 3971 3970 1e-08 0
3890 3891 3972 1e-08 0
3890 3972 3971 1e-08 0
3891 3892 3972 1e-08 0
3892 3973 3972 1e-08 0
3892 3893 3974 1e-08 0
3892 3974 3973 1e-08 0
3893 3894 3974 1e-08 0
3894 3975 3974 1e-08 0
3894 3895 3976 1e-08 0
3894 3976 3975 1e-08 0
3895 3896 3976 1e-08 0
3896 3977 3976 1e-08 0
3896 3897 3978 1e-08 0
3896 3978 3977 1e-08 0
3897 3898 3978 1e-08 0
3898 3979 3978 1e-08 0
3898 3899 3980 1e-08 0
3898 3980 3979 1e-08 0
3899 3900 3980 1e-08 0
3900 3981 3980 1e-08 0
3900 3901 3982 1e-08 0
3900 3982 3981 1e-08 0
3901 3902 3982 1e-08 0
3902 3983 3982 1e-08 0
3902 3903 3984 1e-08 0
3902 3984 3983 1e-08 0
3903 3904 3984 1e-08 0
3904 3985 3984 1e-08 0
3904 3905 3986 1e-08 0
3904 3986 3985 1e-08 0
3905 3906 3986 1e-08 0
3906 3987 3986 1e-08 0
3906 3907 3988 1e-08 0
3906 3988 3987 1e-08 0
3907 3908 3988 1e-08 0
3908 3989 3988 1e-08 0
3908 3909 3990 1e-08 0
3908 3990 3989 1e-08 0
3909 3910 3990 1e-08 0
3910 3991 3990 1e-08 0
3910 3911 3992 1e-08 0
3910 3992 3991 1e-08 0
3911 3912 3992 1e-08 0
3912 3993 3992 1e-08 0
3912 3913 3994 1e-08 0
3912 3994 3993 1e-08 0
3913 3914 3994 1e-08 0
3914 3995 3994 1e-08 0
3914 3915 3996 1e-08 0.00524642
3914 3996 3995 1e-08 0
3915 3916 3996 1e-08 0.0158258
3916 3997 3996 1e-08 0.0174535
3916 3917 3998 1e-08 0.0353571
3916 3998 3997 1e-08 0.0272191
3917 3918 3998 1e-08 0.0443089
3918 3999 3998 1e-08 0.0451227
3918 3919 4000 1e-08 0.060585
3918 4000 3999 1e-08 0.0532607
3919 3920 4000 1e-08 0.0679092
3920 4001 4000 1e-08 0.0679092
3920 3921 4002 1e-08 0.08093
3920 4002 4001 1e-08 0.0744196
3921 3922 4002 1e-08 0.0866266
3922 4003 4002 1e-08 0.0858128
3922 3923 4004 1e-08 0.0963923
3922 4004 4003 1e-08 0.0906956
3923 3924 4004 1e-08 0.100461
3924 4005 4004 1e-08 0.0988337
3924 3925 4006 1e-08 0.106972
3924 4006 4005 1e-08 0.102089
3925 3926 4006 1e-08 0.109413
3926 4007 4006 1e-08 0.106972
3926 3927 4008 1e-08 0.112668
3926 4008 4007 1e-08 0.108599
3927 3928 4008 1e-08 0.113482
3928 4009 4008 1e-08 0.110227
3928 3929 4010 1e-08 0.113482
3928 4010 4009 1e-08 0.110227
3929 3930 4010 1e-08 0.112668
3930 4011 4010 1e-08 0.108599
3930 3931 4012 1e-08 0.109413
3930 4012 4011 1e-08 0.106972
3931 3932 4012 1e-08 0.106972
3932 4013 4012 1e-08 0.102089
3932 3933 4014 1e-08 0.100461
3932 4014 4013 1e-08 0.0988337
3933 3934 4014 1e-08 0.0963923
3934 4015 4014 1e-08 0.0906956
3934 3935 4016 1e-08 0.0866266
3934 4016 4015 1e-08 0.0858128
3935 3936 4016 1e-08 0.08093
3936 4017 4016 1e-08 0.0744196
3936 3937 4018 1e-08 0.0679092
3936 4018 4017 1e-08 0.0679092
3937 3938 4018 1e-08 0.060585
3938 4019 4018 1e-08 0.0532607
3938 3939 4020 1e-08 0.0443089
3938 4020 4019 1e-08 0.0451227
3939 3940 4020 1e-08 0.0353571
3940 4021 4020 1e-08 0.0272191
3940 3941 4022 1e-08 0.0158258
3940 4022 4021 1e-08 0.0174535
3941 3942 4022 1e-08 0.00524642
3942 4023 4022 1e-08 0
3942 3943 4024 1e-08 0
3942 4024 4023 1e-08 0
3943 3944 4024 1e-08 0
3944 4025 4024 1e-08 0
3944 3945 4026 1e-08 0
3944 4026 4025 1e-08 0
3945 3946 4026 1e-08 0
3946 4027 4026 1e-08 0
3946 3947 4028 1e-08 0
3946 4028 4027 1e-08 0
3947 3948 4028 1e-08 0
3948 4029 4028 1e-08 0
3948 3949 4030 1e-08 0
3948 4030 4029 1e-08 0
3949 3950 4030 1e-08 0
3950 4031 4030 1e-08 0
3950 3951 4032 1e-08 0
3950 4032 4031 1e-08 0
3951 3952 4032 1e-08 0
3952 4033 4032 1e-08 0
3952 3953 4034 1e-08 0
3952 4034 4033 1e-08 0
3953 3954 4034 1e-08 0
3954 4035 4034 1e-08 0
3954 3955 4036 1e-08 0
3954 4036 4035 1e-08 0
3955 3956 4036 1e-08 0
3956 4037 4036 1e-08 0
3956 3957 4038 1e-08 0
3956 4038 4037 1e-08 0
3957 3958 4038 1e-08 0
3958 4039 4038 1e-08 0
3958 3959 4040 1e-08 0
3958 4040 4039 1e-08 0
3959 3960 4040 1e-08 0
3960 4041 4040 1e-08 0
3960 3961 4042 1e-08 0
3960 4042 4041 1e-08 0
3961 3962 4042 1e-08 0
3962 4043 4042 1e-08 0
3962 3963 4044 1e-08 0
3962 4044 4043 1e-08 0
3963 3964 4044 1e-08 0
3964 4045 4044 1e-08 0
3964 3965 4046 1e-08 0
3964 4046 4045 1e-08 0
3965 3966 4046 1e-08 0
3966 4047 4046 1e-08 0
3966 3967 4048 1e-08 0
3966 4048 4047 1e-08 0
3967 3968 4048 1e-08 0
3968 4049 4048 1e-08 0
3969 3970 4050 1e-08 0
3970 4051 4050 1e-08 0
3970 3971 4052 1e-08 0
3970 4052 4051 1e-08 0
3971 3972 4052 1e-08 0
3972 4053 4052 1e-08 0
3972 3973 4054 1e-08 0
3972 4054 4053 1e-08 0
3973 3974 4054 1e-08 0
3974 4055 4054 1e-08 0
3974 3975 4056 1e-08 0
3974 4056 4055 1e-08 0
3975 3976 4056 1e-08 0
3976 4057 4056 1e-08 0
3976 3977 4058 1e-08 0
3976 4058 4057 1e-08 0
3977 3978 4058 1e-08 0
3978 4059 4058 1e-08 0
3978 3979 4060 1e-08 0
3978 4060 4059 1e-08 0
3979 3980 4060 1e-08 0
3980 4061 4060 1e-08 0
3980 3981 4062 1e-08 0
3980 4062 4061 1e-08 0
3981 3982 4062 1e-08 0
3982 4063 4062 1e-08 0
3982 3983 4064 1e-08 0
3982 4064 4063 1e-08 0
3983 3984 4064 1e-08 0
3984 4065 4064 1e-08 0
3984 3985 4066 1e-08 0
3984 4066 4065 1e-08 0
3985 3986 4066 1e-08 0
3986 4067 4066 1e-08 0
3986 3987 4068 1e-08 0
3986 4068 4067 1e-08 0
3987 3988 4068 1e-08 0
3988 4069 4068 1e-08 0
3988 3989 4070 1e-08 0
3988 4070 4069 1e-08 0
3989 3990 4070 1e-08 0
3990 4071 4070 1e-08 0
3990 3991 4072 1e-08 0
3990 4072 4071 1e-08 0
3991 3992 4072 1e-08 0
3992 4073 4072 1e-08 0
3992 3993 4074 1e-08 0
3992 4074 4073 1e-08 0
3993 3994 4074 1e-08 0
3994 4075 4074 1e-08 0
3994 3995 4076 1e-08 0
3994 4076 4075 1e-08 0
3995 3996 4076 1e-08 0
3996 4077 4076 1e-08 0
3996 3997 4078 1e-08 0.0101292
3996 4078 4077 1e-08 0.00117741
3997 3998 4078 1e-08 0.0198949
3998 4079 4078 1e-08 0.0207087
3998 3999 4080 1e-08 0.0377985
3998 4080 4079 1e-08 0.0296605
3999 4000 4080 1e-08 0.0459365
4000 4081 4080 1e-08 0.0459365
4000 4001 4082 1e-08 0.060585
4000 4082 4081 1e-08 0.0532607
4001 4002 4082 1e-08 0.0670954
4002 4083 4082 1e-08 0.0662816
4002 4003 4084 1e-08 0.0784886
4002 4084 4083 1e-08 0.0719782
4003 4004 4084 1e-08 0.0833714
4004 4085 4084 1e-08 0.0817438
4004 4005 4086 1e-08 0.0915094
4004 4086 4085 1e-08 0.0858128
4005 4006 4086 1e-08 0.0947646
4006 4087 4086 1e-08 0.0923232
4006 4007 4088 1e-08 0.0996475
4006 4088 4087 1e-08 0.0947646
4007 4008 4088 1e-08 0.101275
4008 4089 4088 1e-08 0.0980199
4008 4009 4090 1e-08 0.102903
4008 4090 4089 1e-08 0.0988337
4009 4010 4090 1e-08 0.102903
4010 4091 4090 1e-08 0.0988337
4010 4011 4092 1e-08 0.101275
4010 4092 4091 1e-08 0.0980199
4011 4012 4092 1e-08 0.0996475
4012 4093 4092 1e-08 0.0947646
4012 4013 4094 1e-08 0.0947646
4012 4094 4093 1e-08 0.0923232
4013 4014 4094 1e-08 0.0915094
4014 4095 4094 1e-08 0.0858128
4014 4015 4096 1e-08 0.0833714
4014 4096 4095 1e-08 0.0817438
4015 4016 4096 1e-08 0.0784886
4016 4097 4096 1e-08 0.0719782
4016 4017 4098 1e-08 0.0670954
4016 4098 4097 1e-08 0.0662816
4017 4018 4098 1e-08 0.060585
4018 4099 4098 1e-08 0.0532607
4018 4019 4100 1e-08 0.0459365
4018 4100 4099 1e-08 0.0459365
4019 4020 4100 1e-08 0.0377985
4020 4101 4100 1e-08 0.0296605
4020 4021 4102 1e-08 0.0198949
4020 4102 4101 1e-08 0.0207087
4021 4022 4102 1e-08 0.0101292
4022 4103 4102 1e-08 0.00117741
4022 4023 4104 1e-08 0
4022 4104 4103 1e-08 0
4023 4024 4104 1e-08 0
4024 4105 4104 1e-08 0
4024 4025 4106 1e-08 0
4024 4106 4105 1e-08 0
4025 4026 4106 1e-08 0
4026 4107 4106 1e-08 0
4026 4027 4108 1e-08 0
4026 4108 4107 1e-08 0
4027 4028 4108 1e-08 0
4028 4109 4108 1e-08 0
4028 4029 4110 1e-08 0
4028 4110 4109 1e-08 0
4029 4030 4110 1e-08 0
4030 4111 4110 1e-08 0
4030 4031 4112 1e-08 0
4030 4112 4111 1e-08 0
4031 4032 4112 1e-08 0
4032 4113 4112 1e-08 0
4032 4033 4114 1e-08 0
4032 4114 4113 1e-08 0
4033 4034 4114 1e-08 0
4034 4115 4114 1e-08 0
4034 4035 4116 1e-08 0
4034 4116 4115 1e-08 0
4035 4036 4116 1e-08 0
4036 4117 4116 1e-08 0
4036 4037 4118 1e-08 0
4036 4118 4117 1e-08 0
4037 4038 4118 1e-08 0
4038 4119 4118 1e-08 0
4038 4039 4120 1e-08 0
4038 4120 4119 1e-08 0
4039 4040 4120 1e-08 0
4040 4121 4120 1e-08 0
4040 4041 4122 1e-08 0
4040 4122 4121 1e-08 0
4041 4042 4122 1e-08 0
4042 4123 4122 1e-08 0
4042 4043 4124 1e-08 0
4042 4124 4123 1e-08 0
4043 4044 4124 1e-08 0
4044 4125 4124 1e-08 0
4044 4045 4126 1e-08 0
4044 4126 4125 1e-08 0
4045 4046 4126 1e-08 0
4046 4127 4126 1e-08 0
4046 4047 4128 1e-08 0
4046 4128 4127 1e-08 0
4047 4048 4128 1e-08 0
4048 4129 4128 1e-08 0
4048 4049 4130 1e-08 0
4048 4130 4129 1e-08 0
4050 4051 4132 1e-08 0
4050 4132 4131 1e-08 0
4051 4052 4132 1e-08 0
4052 4133 4132 1e-08 0
4052 4053 4134 1e-08 0
4052 4134 4133 1e-08 0
4053 4054 4134 1e-08 0
4054 4135 4134 1e-08 0
4054 4055 4136 1e-08 0
4054 4136 4135 1e-08 0
4055 4056 4136 1e-08 0
4056 4137 4136 1e-08 0
4056 4057 4138 1e-08 0
4056 4138 4137 1e-08 0
4057 4058 4138 1e-08 0
4058 4139 4138 1e-08 0
4058 4059 4140 1e-08 0
4058 4140 4139 1e-08 0
4059 4060 4140 1e-08 0
4060 4141 4140 1e-08 0
4060 4061 4142 1e-08 0
4060 4142 4141 1e-08 0
4061 4062 4142 1e-08 0
4062 4143 4142 1e-08 0
4062 4063 4144 1e-08 0
4062 4144 4143 1e-08 0
4063 4064 4144 1e-08 0
4064 4145 4144 1e-08 0
4064 4065 4146 1e-08 0
4064 4146 4145 1e-08 0
4065 4066 4146 1e-08 0
4066 4147 4146 1e-08 0
4066 4067 4148 1e-08 0
4066 4148 4147 1e-08 0
4067 4068 4148 1e-08 0
4068 4149 4148 1e-08 0
4068 4069 4150 1e-08 0
4068 4150 4149 1e-08 0
4069 4070 4150 1e-08 0
4070 4151 4150 1e-08 0
4070 4071 4152 1e-08 0
4070 4152 4151 1e-08 0
4071 4072 4152 1e-08 0
4072 4153 4152 1e-08 0
4072 4073 4154 1e-08 0
4072 4154 4153 1e-08 0
4073 4074 4154 1e-08 0
4074 4155 4154 1e-08 0
4074 4075 4156 1e-08 0
4074 4156 4155 1e-08 0
4075 4076 4156 1e-08 0
4076 4157 4156 1e-08 0
4076 4077 4158 1e-08 0
4076 4158 4157 1e-08 0
4077 4078 4158 1e-08 0
4078 4159 4158 1e-08 0
4078 4079 4160 1e-08 0.0125706
4078 4160 4159 1e-08 0.00361882
4079 4080 4160 1e-08 0.0215225
4080 4161 4160 1e-08 0.0215225
4080 4081 4162 1e-08 0.0377985
4080 4162 4161 1e-08 0.0296605
4081 4082 4162 1e-08 0.0451227
4082 4163 4162 1e-08 0.0443089
4082 4083 4164 1e-08 0.0581436
4082 4164 4163 1e-08 0.0508193
4083 4084 4164 1e-08 0.0638402
4084 4165 4164 1e-08 0.0622126
4084 4085 4166 1e-08 0.0736058
4084 4166 4165 1e-08 0.0670954
4085 4086 4166 1e-08 0.0776748
4086 4167 4166 1e-08 0.0752334
4086 4087 4168 1e-08 0.0841852
4086 4168 4167 1e-08 0.0784886
4087 4088 4168 1e-08 0.0866266
4088 4169 4168 1e-08 0.0833714
4088 4089 4170 1e-08 0.0898818
4088 4170 4169 1e-08 0.084999
4089 4090 4170 1e-08 0.0906956
4090 4171 4170 1e-08 0.0866266
4090 4091 4172 1e-08 0.0906956
4090 4172 4171 1e-08 0.0866266
4091 4092 4172 1e-08 0.0898818
4092 4173 4172 1e-08 0.084999
4092 4093 4174 1e-08 0.0866266
4092 4174 4173 1e-08 0.0833714
4093 4094 4174 1e-08 0.0841852
4094 4175 4174 1e-08 0.0784886
4094 4095 4176 1e-08 0.0776748
4094 4176 4175 1e-08 0.0752334
4095 4096 4176 1e-08 0.0736058
4096 4177 4176 1e-08 0.0670954
4096 4097 4178 1e-08 0.0638402
4096 4178 4177 1e-08 0.0622126
4097 4098 4178 1e-08 0.0581436
4098 4179 4178 1e-08 0.0508193
4098 4099 4180 1e-08 0.0451227
4098 4180 4179 1e-08 0.0443089
4099 4100 4180 1e-08 0.0377985
4100 4181 4180 1e-08 0.0296605
4100 4101 4182 1e-08 0.0215225
4100 4182 4181 1e-08 0.0215225
4101 4102 4182 1e-08 0.0125706
4102 4183 4182 1e-08 0.00361882
4102 4103 4184 1e-08 0
4102 4184 4183 1e-08 0
4103 4104 4184 1e-08 0
4104 4185 4184 1e-08 0
4104 4105 4186 1e-08 0
4104 4186 4185 1e-08 0
4105 4106 4186 1e-08 0
4106 4187 4186 1e-08 0
4106 4107 4188 1e-08 0
4106 4188 4187 1e-08 0
4107 4108 4188 1e-08 0
4108 4189 4188 1e-08 0
4108 4109 4190 1e-08 0
4108 4190 4189 1e-08 0
4109 4110 4190 1e-08 0
4110 4191 4190 1e-08 0
4110 4111 4192 1e-08 0
4110 4192 4191 1e-08 0
4111 4112 4192 1e-08 0
4112 4193 4192 1e-08 0
4112 4113 4194 1e-08 0
4112 4194 4193 1e-08 0
4113 4114 4194 1e-08 0
4114 4195 4194 1e-08 0
4114 4115 4196 1e-08 0
4114 4196 4195 1e-08 0
4115 4116 4196 1e-08 0
4116 4197 4196 1e-08 0
4116 4117 4198 1e-08 0
4116 4198 4197 1e-08 0
4117 4118 4198 1e-08 0
4118 4199 4198 1e-08 0
4118 4119 4200 1e-08 0
4118 4200 4199 1e-08 0
4119 4120 4200 1e-08 0
4120 4201 4200 1e-08 0
4120 4121 4202 1e-08 0
4120 4202 4201 1e-08 0
4121 4122 4202 1e-08 0
4122 4203 4202 1e-08 0
4122 4123 4204 1e-08 0
4122 4204 4203 1e-08 0
4123 4124 4204 1e-08 0
4124 4205 4204 1e-08 0
4124 4125 4206 1e-08 0
4124 4206 4205 1e-08 0
4125 4126 4206 1e-08 0
4126 4207 4206 1e-08 0
4126 4127 4208 1e-08 0
4126 4208 4207 1e-08 0
4127 4128 4208 1e-08 0
4128 4209 4208 1e-08 0
4128 4129 4210 1e-08 0
4128 4210 4209 1e-08 0
4129 4130 4210 1e-08 0
4130 4211 4210 1e-08 0
4131 4132 4212 1e-08 0
4132 4213 4212 1e-08 0
4132 4133 4214 1e-08 0
4132 4214 4213 1e-08 0
4133 4134 4214 1e-08 0
4134 4215 4214 1e-08 0
4134 4135 4216 1e-08 0
4134 4216 4215 1e-08 0
4135 4136 4216 1e-08 0
4136 4217 4216 1e-08 0
4136 4137 4218 1e-08 0
4136 4218 4217 1e-08 0
4137 4138 4218 1e-08 0
4138 4219 4218 1e-08 0
4138 4139 4220 1e-08 0
4138 4220 4219 1e-08 0
4139 4140 4220 1e-08 0
4140 4221 4220 1e-08 0
4140 4141 4222 1e-08 0
4140 4222 4221 1e-08 0
4141 4142 4222 1e-08 0
4142 4223 4222 1e-08 0
4142 4143 4224 1e-08 0
4142 4224 4223 1e-08 0
4143 4144 4224 1e-08 0
4144 4225 4224 1e-08 0
4144 4145 4226 1e-08 0
4144 4226 4225 1e-08 0
4145 4146 4226 1e-08 0
4146 4227 4226 1e-08 0
4146 4147 4228 1e-08 0
4146 4228 4227 1e-08 0
4147 4148 4228 1e-08 0
4148 4229 4228 1e-08 0
4148 4149 4230 1e-08 0
4148 4230 4229 1e-08 0
4149 4150 4230 1e-08 0
4150 4231 4230 1e-08 0
4150 4151 4232 1e-08 0
4150 4232 4231 1e-08 0
4151 4152 4232 1e-08 0
4152 4233 4232 1e-08 0
4152 4153 4234 1e-08 0
4152 4234 4233 1e-08 0
4153 4154 4234 1e-08 0
4154 4235 4234 1e-08 0
4154 4155 4236 1e-08 0
4154 4236 4235 1e-08 0
4155 4156 4236 1e-08 0
4156 4237 4236 1e-08 0
4156 4157 4238 1e-08 0
4156 4238 4237 1e-08 0
4157 4158 4238 1e-08 0
4158 4239 4238 1e-08 0
4158 4159 4240 1e-08 0
4158 4240 4239 1e-08 0
4159 4160 4240 1e-08 0
4160 4241 4240 1e-08 0
4160 4161 4242 1e-08 0.0125706
4160 4242 4241 1e-08 0.00361882
4161 4162 4242 1e-08 0.0207087
4162 4243 4242 1e-08 0.0198949
4162 4163 4244 1e-08 0.0353571
4162 4244 4243 1e-08 0.0272191
4163 4164 4244 1e-08 0.0418675
4164 4245 4244 1e-08 0.0402399
4164 4165 4246 1e-08 0.0532607
4164 4246 4245 1e-08 0.0459365
4165 4166 4246 1e-08 0.0581436
4166 4247 4246 1e-08 0.0557021
4166 4167 4248 1e-08 0.0662816
4166 4248 4247 1e-08 0.0597712
4167 4168 4248 1e-08 0.0695368
4168 4249 4248 1e-08 0.0662816
4168 4169 4250 1e-08 0.0744196
4168 4250 4249 1e-08 0.068723
4169 4170 4250 1e-08 0.0760472
4170 4251 4250 1e-08 0.0719782
4170 4171 4252 1e-08 0.0776748
4170 4252 4251 1e-08 0.072792
4171 4172 4252 1e-08 0.0776748
4172 4253 4252 1e-08 0.072792
4172 4173 4254 1e-08 0.0760472
4172 4254 4253 1e-08 0.0719782
4173 4174 4254 1e-08 0.0744196
4174 4255 4254 1e-08 0.068723
4174 4175 4256 1e-08 0.0695368
4174 4256 4255 1e-08 0.0662816
4175 4176 4256 1e-08 0.0662816
4176 4257 4256 1e-08 0.0597712
4176 4177 4258 1e-08 0.0581436
4176 4258 4257 1e-08 0.0557021
4177 4178 4258 1e-08 0.0532607
4178 4259 4258 1e-08 0.0459365
4178 4179 4260 1e-08 0.0418675
4178 4260 4259 1e-08 0.0402399
4179 4180 4260 1e-08 0.0353571
4180 4261 4260 1e-08 0.0272191
4180 4181 4262 1e-08 0.0207087
4180 4262 4261 1e-08 0.0198949
4181 4182 4262 1e-08 0.0125706
4182 4263 4262 1e-08 0.00361882
4182 4183 4264 1e-08 0
4182 4264 4263 1e-08 0
4183 4184 4264 1e-08 0
4184 4265 4264 1e-08 0
4184 4185 4266 1e-08 0
4184 4266 4265 1e-08 0
4185 4186 4266 1e-08 0
4186 4267 4266 1e-08 0
4186 4187 4268 1e-08 0
4186 4268 4267 1e-08 0
4187 4188 4268 1e-08 0
4188 4269 4268 1e-08 0
4188 4189 4270 1e-08 0
4188 4270 4269 1e-08 0
4189 4190 4270 1e-08 0
4190 4271 4270 1e-08 0
4190 4191 4272 1e-08 0
4190 4272 4271 1e-08 0
4191 4192 4272 1e-08 0
4192 4273 4272 1e-08 0
4192 4193 4274 1e-08 0
4192 4274 4273 1e-08 0
4193 4194 4274 1e-08 0
4194 4275 4274 1e-08 0
4194 4195 4276 1e-08 0
4194 4276 4275 1e-08 0
4195 4196 4276 1e-08 0
4196 4277 4276 1e-08 0
4196 4197 4278 1e-08 0
4196 4278 4277 1e-08 0
4197 4198 4278 1e-08 0
4198 4279 4278 1e-08 0
4198 4199 4280 1e-08 0
4198 4280 4279 1e-08 0
4199 4200 4280 1e-08 0
4200 4281 4280 1e-08 0
4200 4201 4282 1e-08 0
4200 4282 4281 1e-08 0
4201 4202 4282 1e-08 0
4202 4283 4282 1e-08 0
4202 4203 4284 1e-08 0
4202 4284 4283 1e-08 0
4203 4204 4284 1e-08 0
4204 4285 4284 1e-08 0
4204 4205 4286 1e-08 0
4204 4286 4285 1e-08 0
4205 4206 4286 1e-08 0
4206 4287 4286 1e-08 0
4206 4207 4288 1e-08 0
4206 4288 4287 1e-08 0
4207 4208 4288 1e-08 0
4208 4289 4288 1e-08 0
4208 4209 4290 1e-08 0
4208 4290 4289 1e-08 0
4209 4210 4290 1e-08 0
4210 4291 4290 1e-08 0
4210 4211 4292 1e-08 0
4210 4292 4291 1e-08 0
4212 4213 4294 1e-08 0
4212 4294 4293 1e-08 0
4213 4214 4294 1e-08 0
4214 4295 4294 1e-08 0
4214 4215 4296 1e-08 0
4214 4296 4295 1e-08 0
4215 4216 4296 1e-08 0
4216 4297 4296 1e-08 0
4216 4217 4298 1e-08 0
4216 4298 4297 1e-08 0
4217 4218 4298 1e-08 0
4218 4299 4298 1e-08 0
4218 4219 4300 1e-08 0
4218 4300 4299 1e-08 0
4219 4220 4300 1e-08 0
4220 4301 4300 1e-08 0
4220 4221 4302 1e-08 0
4220 4302 4301 1e-08 0
4221 4222 4302 1e-08 0
4222 4303 4302 1e-08 0
4222 4223 4304 1e-08 0
4222 4304 4303 1e-08 0
4223 4224 4304 1e-08 0
4224 4305 4304 1e-08 0
4224 4225 4306 1e-08 0
4224 4306 4305 1e-08 0
4225 4226 4306 1e-08 0
4226 4307 4306 1e-08 0
4226 4227 4308 1e-08 0
4226 4308 4307 1e-08 0
4227 4228 4308 1e-08 0
4228 4309 4308 1e-08 0
4228 4229 4310 1e-08 0
4228 4310 4309 1e-08 0
4229 4230 4310 1e-08 0
4230 4311 4310 1e-08 0
4230 4231 4312 1e-08 0
4230 4312 4311 1e-08 0
4231 4232 4312 1e-08 0
4232 4313 4312 1e-08 0
4232 4233 4314 1e-08 0
4232 4314 4313 1e-08 0
4233 4234 4314 1e-08 0
4234 4315 4314 1e-08 0
4234 4235 4316 1e-08 0
4234 4316 4315 1e-08 0
4235 4236 4316 1e-08 0
4236 4317 4316 1e-08 0
4236 4237 4318 1e-08 0
4236 4318 4317 1e-08 0
4237 4238 4318 1e-08 0
4238 4319 4318 1e-08 0
4238 4239 4320 1e-08 0
4238 4320 4319 1e-08 0
4239 4240 4320 1e-08 0
4240 4321 4320 1e-08 0
4240 4241 4322 1e-08 0
4240 4322 4321 1e-08 0
4241 4242 4322 1e-08 0
4242 4323 4322 1e-08 0
4242 4243 4324 1e-08 0.0101292
4242 4324 4323 1e-08 0.00117741
4243 4244 4324 1e-08 0.0174535
4244 4325 4324 1e-08 0.0158258
4244 4245 4326 1e-08 0.0304743
4244 4326 4325 1e-08 0.0223363
4245 4246 4326 1e-08 0.0361709
4246 4327 4326 1e-08 0.0337295
4246 4247 4328 1e-08 0.0459365
4246 4328 4327 1e-08 0.0386123
4247 4248 4328 1e-08 0.0500055
4248 4329 4328 1e-08 0.0467503
4248 4249 4330 1e-08 0.056516
4248 4330 4329 1e-08 0.0500055
4249 4250 4330 1e-08 0.0589574
4250 4331 4330 1e-08 0.0548883
4250 4251 4332 1e-08 0.0622126
4250 4332 4331 1e-08 0.056516
4251 4252 4332 1e-08 0.0630264
4252 4333 4332 1e-08 0.0581436
4252 4253 4334 1e-08 0.0630264
4252 4334 4333 1e-08 0.0581436
4253 4254 4334 1e-08 0.0622126
4254 4335 4334 1e-08 0.056516
4254 4255 4336 1e-08 0.0589574
4254 4336 4335 1e-08 0.0548883
4255 4256 4336 1e-08 0.056516
4256 4337 4336 1e-08 0.0500055
4256 4257 4338 1e-08 0.0500055
4256 4338 4337 1e-08 0.0467503
4257 4258 4338 1e-08 0.0459365
4258 4339 4338 1e-08 0.0386123
4258 4259 4340 1e-08 0.0361709
4258 4340 4339 1e-08 0.0337295
4259 4260 4340 1e-08 0.0304743
4260 4341 4340 1e-08 0.0223363
4260 4261 4342 1e-08 0.0174535
4260 4342 4341 1e-08 0.0158258
4261 4262 4342 1e-08 0.0101292
4262 4343 4342 1e-08 0.00117741
4262 4263 4344 1e-08 0
4262 4344 4343 1e-08 0
4263 4264 4344 1e-08 0
4264 4345 4344 1e-08 0
4264 4265 4346 1e-08 0
4264 4346 4345 1e-08 0
4265 4266 4346 1e-08 0
4266 4347 4346 1e-08 0
4266 4267 4348 1e-08 0
4266 4348 4347 1e-08 0
4267 4268 4348 1e-08 0
4268 4349 4348 1e-08 0
4268 4269 4350 1e-08 0
4268 4350 4349 1e-08 0
4269 4270 4350 1e-08 0
4270 4351 4350 1e-08 0
4270 4271 4352 1e-08 0
4270 4352 4351 1e-08 0
4271 4272 4352 1e-08 0
4272 4353 4352 1e-08 0
4272 4273 4354 1e-08 0
4272 4354 4353 1e-08 0
4273 4274 4354 1e-08 0
4274 4355 4354 1e-08 0
4274 4275 4356 1e-08 0
4274 4356 4355 1e-08 0
4275 4276 4356 1e-08 0
4276 4357 4356 1e-08 0
4276 4277 4358 1e-08 0
4276 4358 4357 1e-08 0
4277 4278 4358 1e-08 0
4278 4359 4358 1e-08 0
4278 4279 4360 1e-08 0
4278 4360 4359 1e-08 0
4279 4280 4360 1e-08 0
4280 4361 4360 1e-08 0
4280 4281 4362 1e-08 0
4280 4362 4361 1e-08 0
4281 4282 4362 1e-08 0
4282 4363 4362 1e-08 0
4282 4283 4364 1e-08 0
4282 4364 4363 1e-08 0
4283 4284 4364 1e-08 0
4284 4365 4364 1e-08 0
4284 4285 4366 1e-08 0
4284 4366 4365 1e-08 0
4285 4286 4366 1e-08 0
4286 4367 4366 1e-08 0
4286 4287 4368 1e-08 0
4286 4368 4367 1e-08 0
4287 4288 4368 1e-08 0
4288 4369 4368 1e-08 0
4288 4289 4370 1e-08 0
4288 4370 4369 1e-08 0
4289 4290 4370 1e-08 0
4290 4371 4370 1e-08 0
4290 4291 4372 1e-08 0
4290 4372 4371 1e-08 0
4291 4292 4372 1e-08 0
4292 4373 4372 1e-08 0
4293 4294 4374 1e-08 0
4294 4375 4374 1e-08 0
4294 4295 4376 1e-08 0
4294 4376 4375 1e-08 0
4295 4296 4376 1e-08 0
4296 4377 4376 1e-08 0
4296 4297 4378 1e-08 0
4296 4378 4377 1e-08 0
4297 4298 4378 1e-08 0
4298 4379 4378 1e-08 0
4298 4299 4380 1e-08 0
4298 4380 4379 1e-08 0
4299 4300 4380 1e-08 0
4300 4381 4380 1e-08 0
4300 4301 4382 1e-08 0
4300 4382 4381 1e-08 0
4301 4302 4382 1e-08 0
4302 4383 4382 1e-08 0
4302 4303 4384 1e-08 0
4302 4384 4383 1e-08 0
4303 4304 4384 1e-08 0
4304 4385 4384 1e-08 0
4304 4305 4386 1e-08 0
4304 4386 4385 1e-08 0
4305 4306 4386 1e-08 0
4306 4387 4386 1e-08 0
4306 4307 4388 1e-08 0
4306 4388 4387 1e-08 0
4307 4308 4388 1e-08 0
4308 4389 4388 1e-08 0
4308 4309 4390 1e-08 0
4308 4390 4389 1e-08 0
4309 4310 4390 1e-08 0
4310 4391 4390 1e-08 0
4310 4311 4392 1e-08 0
4310 4392 4391 1e-08 0
4311 4312 4392 1e-08 0
4312 4393 4392 1e-08 0
4312 4313 4394 1e-08 0
4312 4394 4393 1e-08 0
4313 4314 4394 1e-08 0
4314 4395 4394 1e-08 0
4314 4315 4396 1e-08 0
4314 4396 4395 1e-08 0
4315 4316 4396 1e-08 0
4316 4397 4396 1e-08 0
4316 4317 4398 1e-08 0
4316 4398 4397 1e-08 0
4317 4318 4398 1e-08 0
4318 4399 4398 1e-08 0
4318 4319 4400 1e-08 0
4318 4400 4399 1e-08 0
4319 4320 4400 1e-08 0
4320 4401 4400 1e-08 0
4320 4321 4402 1e-08 0
4320 4402 4401 1e-08 0
4321 4322 4402 1e-08 0
4322 4403 4402 1e-08 0
4322 4323 4404 1e-08 0
4322 4404 4403 1e-08 0
4323 4324 4404 1e-08 0
4324 4405 4404 1e-08 0
4324 4325 4406 1e-08 0.00524642
4324 4406 4405 1e-08 0
4325 4326 4406 1e-08 0.0117568
4326 4407 4406 1e-08 0.00931543
4326 4327 4408 1e-08 0.0231501
4326 4408 4407 1e-08 0.015012
4327 4328 4408 1e-08 0.0280329
4328 4409 4408 1e-08 0.0247777
4328 4329 4410 1e-08 0.0361709
4328 4410 4409 1e-08 0.0288467
4329 4330 4410 1e-08 0.0394261
4330 4411 4410 1e-08 0.0353571
4330 4331 4412 1e-08 0.0443089
4330 4412 4411 1e-08 0.0377985
4331 4332 4412 1e-08 0.0459365
4332 4413 4412 1e-08 0.0410537
4332 4333 4414 1e-08 0.0475641
4332 4414 4413 1e-08 0.0418675
4333 4334 4414 1e-08 0.0475641
4334 4415 4414 1e-08 0.0418675
4334 4335 4416 1e-08 0.0459365
4334 4416 4415 1e-08 0.0410537
4335 4336 4416 1e-08 0.0443089
4336 4417 4416 1e-08 0.0377985
4336 4337 4418 1e-08 0.0394261
4336 4418 4417 1e-08 0.0353571
4337 4338 4418 1e-08 0.0361709
4338 4419 4418 1e-08 0.0288467
4338 4339 4420 1e-08 0.0280329
4338 4420 4419 1e-08 0.0247777
4339 4340 4420 1e-08 0.0231501
4340 4421 4420 1e-08 0.015012
4340 4341 4422 1e-08 0.0117568
4340 4422 4421 1e-08 0.00931543
4341 4342 4422 1e-08 0.00524642
4342 4423 4422 1e-08 0
4342 4343 4424 1e-08 0
4342 4424 4423 1e-08 0
4343 4344 4424 1e-08 0
4344 4425 4424 1e-08 0
4344 4345 4426 1e-08 0
4344 4426 4425 1e-08 0
4345 4346 4426 1e-08 0
4346 4427 4426 1e-08 0
4346 4347 4428 1e-08 0
4346 4428 4427 1e-08 0
4347 4348 4428 1e-08 0
4348 4429 4428 1e-08 0
4348 4349 4430 1e-08 0
4348 4430 4429 1e-08 0
4349 4350 4430 1e-08 0
4350 4431 4430 1e-08 0
4350 4351 4432 1e-08 0
4350 4432 4431 1e-08 0
4351 4352 4432 1e-08 0
4352 4433 4432 1e-08 0
4352 4353 4434 1e-08 0
4352 4434 4433 1e-08 0
4353 4354 4434 1e-08 0
4354 4435 4434 1e-08 0
4354 4355 4436 1e-08 0
4354 4436 4435 1e-08 0
4355 4356 4436 1e-08 0
4356 4437 4436 1e-08 0
4356 4357 4438 1e-08 0
4356 4438 4437 1e-08 0
4357 4358 4438 1e-08 0
4358 4439 4438 1e-08 0
4358 4359 4440 1e-08 0
4358 4440 4439 1e-08 0
4359 4360 4440 1e-08 0
4360 4441 4440 1e-08 0
4360 4361 4442 1e-08 0
4360 4442 4441 1e-08 0
4361 4362 4442 1e-08 0
4362 4443 4442 1e-08 0
4362 4363 4444 1e-08 0
4362 4444 4443 1e-08 0
4363 4364 4444 1e-08 0
4364 4445 4444 1e-08 0
4364 4365 4446 1e-08 0
4364 4446 4445 1e-08 0
4365 4366 4446 1e-08 0
4366 4447 4446 1e-08 0
4366 4367 4448 1e-08 0
4366 4448 4447 1e-08 0
4367 4368 4448 1e-08 0
4368 4449 4448 1e-08 0
4368 4369 4450 1e-08 0
4368 4450 4449 1e-08 0
4369 4370 4450 1e-08 0
4370 4451 4450 1e-08 0
4370 4371 4452 1e-08 0
4370 4452 4451 1e-08 0
4371 4372 4452 1e-08 0
4372 4453 4452 1e-08 0
4372 4373 4454 1e-08 0
4372 4454 4453 1e-08 0
4374 4375 4456 1e-08 0
4374 4456 4455 1e-08 0
4375 4376 4456 1e-08 0
4376 4457 4456 1e-08 0
4376 4377 4458 1e-08 0
4376 4458 4457 1e-08 0
4377 4378 4458 1e-08 0
4378 4459 4458 1e-08 0
4378 4379 4460 1e-08 0
4378 4460 4459 1e-08 0
4379 4380 4460 1e-08 0
4380 4461 4460 1e-08 0
4380 4381 4462 1e-08 0
4380 4462 4461 1e-08 0
4381 4382 4462 1e-08 0
4382 4463 4462 1e-08 0
4382 4383 4464 1e-08 0
4382 4464 4463 1e-08 0
4383 4384 4464 1e-08 0
4384 4465 4464 1e-08 0
4384 4385 4466 1e-08 0
4384 4466 4465 1e-08 0
4385 4386 4466 1e-08 0
4386 4467 4466 1e-08 0
4386 4387 4468 1e-08 0
4386 4468 4467 1e-08 0
4387 4388 4468 1e-08 0
4388 4469 4468 1e-08 0
4388 4389 4470 1e-08 0
4388 4470 4469 1e-08 0
4389 4390 4470 1e-08 0
4390 4471 4470 1e-08 0
4390 4391 4472 1e-08 0
4390 4472 4471 1e-08 0
4391 4392 4472 1e-08 0
4392 4473 4472 1e-08 0
4392 4393 4474 1e-08 0
4392 4474 4473 1e-08 0
4393 4394 4474 1e-08 0
4394 4475 4474 1e-08 0
4394 4395 4476 1e-08 0
4394 4476 4475 1e-08 0
4395 4396 4476 1e-08 0
4396 4477 4476 1e-08 0
4396 4397 4478 1e-08 0
4396 4478 4477 1e-08 0
4397 4398 4478 1e-08 0
4398 4479 4478 1e-08 0
4398 4399 4480 1e-08 0
4398 4480 4479 1e-08 0
4399 4400 4480 1e-08 0
4400 4481 4480 1e-08 0
4400 4401 4482 1e-08 0
4400 4482 4481 1e-08 0
4401 4402 4482 1e-08 0
4402 4483 4482 1e-08 0
4402 4403 4484 1e-08 0
4402 4484 4483 1e-08 0
4403 4404 4484 1e-08 0
4404 4485 4484 1e-08 0
4404 4405 4486 1e-08 0
4404 4486 4485 1e-08 0
4405 4406 4486 1e-08 0
4406 4487 4486 1e-08 0
4406 4407 4488 1e-08 0
4406 4488 4487 1e-08 0
4407 4408 4488 1e-08 0.00361882
4408 4489 4488 1e-08 0.000363607
4408 4409 4490 1e-08 0.0133844
4408 4490 4489 1e-08 0.00524642
4409 4410 4490 1e-08 0.0174535
4410 4491 4490 1e-08 0.0133844
4410 4411 4492 1e-08 0.0239639
4410 4492 4491 1e-08 0.0166396
4411 4412 4492 1e-08 0.0264053
4412 4493 4492 1e-08 0.0215225
4412 4413 4494 1e-08 0.0296605
4412 4494 4493 1e-08 0.0231501
4413 4414 4494 1e-08 0.0304743
4414 4495 4494 1e-08 0.0247777
4414 4415 4496 1e-08 0.0304743
4414 4496 4495 1e-08 0.0247777
4415 4416 4496 1e-08 0.0296605
4416 4497 4496 1e-08 0.0231501
4416 4417 4498 1e-08 0.0264053
4416 4498 4497 1e-08 0.0215225
4417 4418 4498 1e-08 0.0239639
4418 4499 4498 1e-08 0.0166396
4418 4419 4500 1e-08 0.0174535
4418 4500 4499 1e-08 0.0133844
4419 4420 4500 1e-08 0.0133844
4420 4501 4500 1e-08 0.00524642
4420 4421 4502 1e-08 0.00361882
4420 4502 4501 1e-08 0.000363607
4421 4422 4502 1e-08 0
4422 4503 4502 1e-08 0
4422 4423 4504 1e-08 0
4422 4504 4503 1e-08 0
4423 4424 4504 1e-08 0
4424 4505 4504 1e-08 0
4424 4425 4506 1e-08 0
4424 4506 4505 1e-08 0
4425 4426 4506 1e-08 0
4426 4507 4506 1e-08 0
4426 4427 4508 1e-08 0
4426 4508 4507 1e-08 0
4427 4428 4508 1e-08 0
4428 4509 4508 1e-08 0
4428 4429 4510 1e-08 0
4428 4510 4509 1e-08 0
4429 4430 4510 1e-08 0
4430 4511 4510 1e-08 0
4430 4431 4512 1e-08 0
4430 4512 4511 1e-08 0
4431 4432 4512 1e-08 0
4432 4513 4512 1e-08 0
4432 4433 4514 1e-08 0
4432 4514 4513 1e-08 0
4433 4434 4514 1e-08 0
4434 4515 4514 1e-08 0
4434 4435 4516 1e-08 0
4434 4516 4515 1e-08 0
4435 4436 4516 1e-08 0
4436 4517 4516 1e-08 0
4436 4437 4518 1e-08 0
4436 4518 4517 1e-08 0
4437 4438 4518 1e-08 0
4438 4519 4518 1e-08 0
4438 4439 4520 1e-08 0
4438 4520 4519 1e-08 0
4439 4440 4520 1e-08 0
4440 4521 4520 1e-08 0
4440 4441 4522 1e-08 0
4440 4522 4521 1e-08 0
4441 4442 4522 1e-08 0
4442 4523 4522 1e-08 0
4442 4443 4524 1e-08 0
4442 4524 4523 1e-08 0
4443 4444 4524 1e-08 0
4444 4525 4524 1e-08 0
4444 4445 4526 1e-08 0
4444 4526 4525 1e-08 0
4445 4446 4526 1e-08 0
4446 4527 4526 1e-08 0
4446 4447 4528 1e-08 0
4446 4528 4527 1e-08 0
4447 4448 4528 1e-08 0
4448 4529 4528 1e-08 0
4448 4449 4530 1e-08 0
4448 4530 4529 1e-08 0
4449 4450 4530 1e-08 0
4450 4531 4530 1e-08 0
4450 4451 4532 1e-08 0
4450 4532 4531 1e-08 0
4451 4452 4532 1e-08 0
4452 4533 4532 1e-08 0
4452 4453 4534 1e-08 0
4452 4534 4533 1e-08 0
4453 4454 4534 1e-08 0
4454 4535 4534 1e-08 0
4455 4456 4536 1e-08 0
4456 4537 4536 1e-08 0
4456 4457 4538 1e-08 0
4456 4538 4537 1e-08 0
4457 4458 4538 1e-08 0
4458 4539 4538 1e-08 0
4458 4459 4540 1e-08 0
4458 4540 4539 1e-08 0
4459 4460 4540 1e-08 0
4460 4541 4540 1e-08 0
4460 4461 4542 1e-08 0
4460 4542 4541 1e-08 0
4461 4462 4542 1e-08 0
4462 4543 4542 1e-08 0
4462 4463 4544 1e-08 0
4462 4544 4543 1e-08 0
4463 4464 4544 1e-08 0
4464 4545 4544 1e-08 0
4464 4465 4546 1e-08 0
4464 4546 4545 1e-08 0
4465 4466 4546 1e-08 0
4466 4547 4546 1e-08 0
4466 4467 4548 1e-08 0
4466 4548 4547 1e-08 0
4467 4468 4548 1e-08 0
4468 4549 4548 1e-08 0
4468 4469 4550 1e-08 0
4468 4550 4549 1e-08 0
4469 4470 4550 1e-08 0
4470 4551 4550 1e-08 0
4470 4471 4552 1e-08 0
4470 4552 4551 1e-08 0
4471 4472 4552 1e-08 0
4472 4553 4552 1e-08 0
4472 4473 4554 1e-08 0
4472 4554 4553 1e-08 0
4473 4474 4554 1e-08 0
4474 4555 4554 1e-08 0
4474 4475 4556 1e-08 0
4474 4556 4555 1e-08 0
4475 4476 4556 1e-08 0
4476 4557 4556 1e-08 0
4476 4477 4558 1e-08 0
4476 4558 4557 1e-08 0
4477 4478 4558 1e-08 0
4478 4559 4558 1e-08 0
4478 4479 4560 1e-08 0
4478 4560 4559 1e-08 0
4479 4480 4560 1e-08 0
4480 4561 4560 1e-08 0
4480 4481 4562 1e-08 0
4480 4562 4561 1e-08 0
4481 4482 4562 1e-08 0
4482 4563 4562 1e-08 0
4482 4483 4564 1e-08 0
4482 4564 4563 1e-08 0
4483 4484 4564 1e-08 0
4484 4565 4564 1e-08 0
4484 4485 4566 1e-08 0
4484 4566 4565 1e-08 0
4485 4486 4566 1e-08 0
4486 4567 4566 1e-08 0
4486 4487 4568 1e-08 0
4486 4568 4567 1e-08 0
4487 4488 4568 1e-08 0
4488 4569 4568 1e-08 0
4488 4489 4570 1e-08 0
4488 4570 4569 1e-08 0
4489 4490 4570 1e-08 0
4490 4571 4570 1e-08 0
4490 4491 4572 1e-08 0.00117741
4490 4572 4571 1e-08 0
4491 4492 4572 1e-08 0.00443262
4492 4573 4572 1e-08 0
4492 4493 4574 1e-08 0.00931543
4492 4574 4573 1e-08 0.00199121
4493 4494 4574 1e-08 0.010943
4494 4575 4574 1e-08 0.00524642
4494 4495 4576 1e-08 0.0125706
4494 4576 4575 1e-08 0.00606022
4495 4496 4576 1e-08 0.0125706
4496 4577 4576 1e-08 0.00606022
4496 4497 4578 1e-08 0.010943
4496 4578 4577 1e-08 0.00524642
4497 4498 4578 1e-08 0.00931543
4498 4579 4578 1e-08 0.00199121
4498 4499 4580 1e-08 0.00443262
4498 4580 4579 1e-08 0
4499 4500 4580 1e-08 0.00117741
4500 4581 4580 1e-08 0
4500 4501 4582 1e-08 0
4500 4582 4581 1e-08 0
4501 4502 4582 1e-08 0
4502 4583 4582 1e-08 0
4502 4503 4584 1e-08 0
4502 4584 4583 1e-08 0
4503 4504 4584 1e-08 0
4504 4585 4584 1e-08 0
4504 4505 4586 1e-08 0
4504 4586 4585 1e-08 0
4505 4506 4586 1e-08 0
4506 4587 4586 1e-08 0
4506 4507 4588 1e-08 0
4506 4588 4587 1e-08 0
4507 4508 4588 1e-08 0
4508 4589 4588 1e-08 0
4508 4509 4590 1e-08 0
4508 4590 4589 1e-08 0
4509 4510 4590 1e-08 0
4510 4591 4590 1e-08 0
4510 4511 4592 1e-08 0
4510 4592 4591 1e-08 0
4511 4512 4592 1e-08 0
4512 4593 4592 1e-08 0
4512 4513 4594 1e-08 0
4512 4594 4593 1e-08 0
4513 4514 4594 1e-08 0
4514 4595 4594 1e-08 0
4514 4515 4596 1e-08 0
4514 4596 4595 1e-08 0
4515 4516 4596 1e-08 0
4516 4597 4596 1e-08 0
4516 4517 4598 1e-08 0
4516 4598 4597 1e-08 0
4517 4518 4598 1e-08 0
4518 4599 4598 1e-08 0
4518 4519 4600 1e-08 0
4518 4600 4599 1e-08 0
4519 4520 4600 1e-08 0
4520 4601 4600 1e-08 0
4520 4521 4602 1e-08 0
4520 4602 4601 1e-08 0
4521 4522 4602 1e-08 0
4522 4603 4602 1e-08 0
4522 4523 4604 1e-08 0
4522 4604 4603 1e-08 0
4523 4524 4604 1e-08 0
4524 4605 4604 1e-08 0
4524 4525 4606 1e-08 0
4524 4606 4605 1e-08 0
4525 4526 4606 1e-08 0
4526 4607 4606 1e-08 0
4526 4527 4608 1e-08 0
4526 4608 4607 1e-08 0
4527 4528 4608 1e-08 0
4528 4609 4608 1e-08 0
4528 4529 4610 1e-08 0
4528 4610 4609 1e-08 0
4529 4530 4610 1e-08 0
4530 4611 4610 1e-08 0
4530 4531 4612 1e-08 0
4530 4612 4611 1e-08 0
4531 4532 4612 1e-08 0
4532 4613 4612 1e-08 0
4532 4533 4614 1e-08 0
4532 4614 4613 1e-08 0
4533 4534 4614 1e-08 0
4534 4615 4614 1e-08 0
4534 4535 4616 1e-08 0
4534 4616 4615 1e-08 0
4536 4537 4618 1e-08 0
4536 4618 4617 1e-08 0
4537 4538 4618 1e-08 0
4538 4619 4618 1e-08 0
4538 4539 4620 1e-08 0
4538 4620 4619 1e-08 0
4539 4540 4620 1e-08 0
4540 4621 4620 1e-08 0
4540 4541 4622 1e-08 0
4540 4622 4621 1e-08 0
4541 4542 4622 1e-08 0
4542 4623 4622 1e-08 0
4542 4543 4624 1e-08 0
4542 4624 4623 1e-08 0
4543 4544 4624 1e-08 0
4544 4625 4624 1e-08 0
4544 4545 4626 1e-08 0
4544 4626 4625 1e-08 0
4545 4546 4626 1e-08 0
4546 4627 4626 1e-08 0
4546 4547 4628 1e-08 0
4546 4628 4627 1e-08 0
4547 4548 4628 1e-08 0
4548 4629 4628 1e-08 0
4548 4549 4630 1e-08 0
4548 4630 4629 1e-08 0
4549 4550 4630 1e-08 0
4550 4631 4630 1e-08 0
4550 4551 4632 1e-08 0
4550 4632 4631 1e-08 0
4551 4552 4632 1e-08 0
4552 4633 4632 1e-08 0
4552 4553 4634 1e-08 0
4552 4634 4633 1e-08 0
4553 4554 4634 1e-08 0
4554 4635 4634 1e-08 0
4554 4555 4636 1e-08 0
4554 4636 4635 1e-08 0
4555 4556 4636 1e-08 0
4556 4637 4636 1e-08 0
4556 4557 4638 1e-08 0
4556 4638 4637 1e-08 0
4557 4558 4638 1e-08 0
4558 4639 4638 1e-08 0
4558 4559 4640 1e-08 0
4558 4640 4639 1e-08 0
4559 4560 4640 1e-08 0
4560 4641 4640 1e-08 0
4560 4561 4642 1e-08 0
4560 4642 4641 1e-08 0
4561 4562 4642 1e-08 0
4562 4643 4642 1e-08 0
4562 4563 4644 1e-08 0
4562 4644 4643 1e-08 0
4563 4564 4644 1e-08 0
4564 4645 4644 1e-08 0
4564 4565 4646 1e-08 0
4564 4646 4645 1e-08 0
4565 4566 4646 1e-08 0
4566 4647 4646 1e-08 0
4566 4567 4648 1e-08 0
4566 4648 4647 1e-08 0
4567 4568 4648 1e-08 0
4568 4649 4648 1e-08 0
4568 4569 4650 1e-08 0
4568 4650 4649 1e-08 0
4569 4570 4650 1e-08 0
4570 4651 4650 1e-08 0
4570 4571 4652 1e-08 0
4570 4652 4651 1e-08 0
4571 4572 4652 1e-08 0
4572 4653 4652 1e-08 0
4572 4573 4654 1e-08 0
4572 4654 4653 1e-08 0
4573 4574 4654 1e-08 0
4574 4655 4654 1e-08 0
4574 4575 4656 1e-08 0
4574 4656 4655 1e-08 0
4575 4576 4656 1e-08 0
4576 4657 4656 1e-08 0
4576 4577 4658 1e-08 0
4576 4658 4657 1e-08 0
4577 4578 4658 1e-08 0
4578 4659 4658 1e-08 0
4578 4579 4660 1e-08 0
4578 4660 4659 1e-08 0
4579 4580 4660 1e-08 0
4580 4661 4660 1e-08 0
4580 4581 4662 1e-08 0
4580 4662 4661 1e-08 0
4581 4582 4662 1e-08 0
4582 4663 4662 1e-08 0
4582 4583 4664 1e-08 0
4582 4664 4663 1e-08 0
4583 4584 4664 1e-08 0
4584 4665 4664 1e-08 0
4584 4585 4666 1e-08 0
4584 4666 4665 1e-08 0
4585 4586 4666 1e-08 0
4586 4667 4666 1e-08 0
4586 4587 4668 1e-08 0
4586 4668 4667 1e-08 0
4587 4588 4668 1e-08 0
4588 4669 4668 1e-08 0
4588 4589 4670 1e-08 0
4588 4670 4669 1e-08 0
4589 4590 4670 1e-08 0
4590 4671 4670 1e-08 0
4590 4591 4672 1e-08 0
4590 4672 4671 1e-08 0
4591 4592 4672 1e-08 0
4592 4673 4672 1e-08 0
4592 4593 4674 1e-08 0
4592 4674 4673 1e-08 0
4593 4594 4674 1e-08 0
4594 4675 4674 1e-08 0
4594 4595 4676 1e-08 0
4594 4676 4675 1e-08 0
4595 4596 4676 1e-08 0
4596 4677 4676 1e-08 0
4596 4597 4678 1e-08 0
4596 4678 4677 1e-08 0
4597 4598 4678 1e-08 0
4598 4679 4678 1e-08 0
4598 4599 4680 1e-08 0
4598 4680 4679 1e-08 0
4599 4600 4680 1e-08 0
4600 4681 4680 1e-08 0
4600 4601 4682 1e-08 0
4600 4682 4681 1e-08 0
4601 4602 4682 1e-08 0
4602 4683 4682 1e-08 0
4602 4603 4684 1e-08 0
4602 4684 4683 1e-08 0
4603 4604 4684 1e-08 0
4604 4685 4684 1e-08 0
4604 4605 4686 1e-08 0
4604 4686 4685 1e-08 0
4605 4606 4686 1e-08 0
4606 4687 4686 1e-08 0
4606 4607 4688 1e-08 0
4606 4688 4687 1e-08 0
4607 4608 4688 1e-08 0
4608 4689 4688 1e-08 0
4608 4609 4690 1e-08 0
4608 4690 4689 1e-08 0
4609 4610 4690 1e-08 0
4610 4691 4690 1e-08 0
4610 4611 4692 1e-08 0
4610 4692 4691 1e-08 0
4611 4612 4692 1e-08 0
4612 4693 4692 1e-08 0
4612 4613 4694 1e-08 0
4612 4694 4693 1e-08 0
4613 4614 4694 1e-08 0
4614 4695 4694 1e-08 0
4614 4615 4696 1e-08 0
4614 4696 4695 1e-08 0
4615 4616 4696 1e-08 0
4616 4697 4696 1e-08 0
4617 4618 4698 1e-08 0
4618 4699 4698 1e-08 0
4618 4619 4700 1e-08 0
4618 4700 4699 1e-08 0
4619 4620 4700 1e-08 0
4620 4701 4700 1e-08 0
4620 4621 4702 1e-08 0
4620 4702 4701 1e-08 0
4621 4622 4702 1e-08 0
4622 4703 4702 1e-08 0
4622 4623 4704 1e-08 0
4622 4704 4703 1e-08 0
4623 4624 4704 1e-08 0
4624 4705 4704 1e-08 0
4624 4625 4706 1e-08 0
4624 4706 4705 1e-08 0
4625 4626 4706 1e-08 0
4626 4707 4706 1e-08 0
4626 4627 4708 1e-08 0
4626 4708 4707 1e-08 0
4627 4628 4708 1e-08 0
4628 4709 4708 1e-08 0
4628 4629 4710 1e-08 0
4628 4710 4709 1e-08 0
4629 4630 4710 1e-08 0
4630 4711 4710 1e-08 0
4630 4631 4712 1e-08 0
4630 4712 4711 1e-08 0
4631 4632 4712 1e-08 0
4632 4713 4712 1e-08 0
4632 4633 4714 1e-08 0
4632 4714 4713 1e-08 0
4633 4634 4714 1e-08 0
4634 4715 4714 1e-08 0
4634 4635 4716 1e-08 0
4634 4716 4715 1e-08 0
4635 4636 4716 1e-08 0
4636 4717 4716 1e-08 0
4636 4637 4718 1e-08 0
4636 4718 4717 1e-08 0
4637 4638 4718 1e-08 0
4638 4719 4718 1e-08 0
4638 4639 4720 1e-08 0
4638 4720 4719 1e-08 0
4639 4640 4720 1e-08 0
4640 4721 4720 1e-08 0
4640 4641 4722 1e-08 0
4640 4722 4721 1e-08 0
4641 4642 4722 1e-08 0
4642 4723 4722 1e-08 0
4642 4643 4724 1e-08 0
4642 4724 4723 1e-08 0
4643 4644 4724 1e-08 0
4644 4725 4724 1e-08 0
4644 4645 4726 1e-08 0
4644 4726 4725 1e-08 0
4645 4646 4726 1e-08 0
4646 4727 4726 1e-08 0
4646 4647 4728 1e-08 0
4646 4728 4727 1e-08 0
4647 4648 4728 1e-08 0
4648 4729 4728 1e-08 0
4648 4649 4730 1e-08 0
4648 4730 4729 1e-08 0
4649 4650 4730 1e-08 0
4650 4731 4730 1e-08 0
4650 4651 4732 1e-08 0
4650 4732 4731 1e-08 0
4651 4652 4732 1e-08 0
4652 4733 4732 1e-08 0
4652 4653 4734 1e-08 0
4652 4734 4733 1e-08 0
4653 4654 4734 1e-08 0
4654 4735 4734 1e-08 0
4654 4655 4736 1e-08 0
4654 4736 4735 1e-08 0
4655 4656 4736 1e-08 0
4656 4737 4736 1e-08 0
4656 4657 4738 1e-08 0
4656 4738 4737 1e-08 0
4657 4658 4738 1e-08 0
4658 4739 4738 1e-08 0
4658 4659 4740 1e-08 0
4658 4740 4739 1e-08 0
4659 4660 4740 1e-08 0
4660 4741 4740 1e-08 0
4660 4661 4742 1e-08 0
4660 4742 4741 1e-08 0
4661 4662 4742 1e-08 0
4662 4743 4742 1e-08 0
4662 4663 4744 1e-08 0
4662 4744 4743 1e-08 0
4663 4664 4744 1e-08 0
4664 4745 4744 1e-08 0
4664 4665 4746 1e-08 0
4664 4746 4745 1e-08 0
4665 4666 4746 1e-08 0
4666 4747 4746 1e-08 0
4666 4667 4748 1e-08 0
4666 4748 4747 1e-08 0
4667 4668 4748 1e-08 0
4668 4749 4748 1e-08 0
4668 4669 4750 1e-08 0
4668 4750 4749 1e-08 0
4669 4670 4750 1e-08 0
4670 4751 4750 1e-08 0
4670 4671 4752 1e-08 0
4670 4752 4751 1e-08 0
4671 4672 4752 1e-08 0
4672 4753 4752 1e-08 0
4672 4673 4754 1e-08 0
4672 4754 4753 1e-08 0
4673 4674 4754 1e-08 0
4674 4755 4754 1e-08 0
4674 4675 4756 1e-08 0
4674 4756 4755 1e-08 0
4675 4676 4756 1e-08 0
4676 4757 4756 1e-08 0
4676 4677 4758 1e-08 0
4676 4758 4757 1e-08 0
4677 4678 4758 1e-08 0
4678 4759 4758 1e-08 0
4678 4679 4760 1e-08 0
4678 4760 4759 1e-08 0
4679 4680 4760 1e-08 0
4680 4761 4760 1e-08 0
4680 4681 4762 1e-08 0
4680 4762 4761 1e-08 0
4681 4682 4762 1e-08 0
4682 4763 4762 1e-08 0
4682 4683 4764 1e-08 0
4682 4764 4763 1e-08 0
4683 4684 4764 1e-08 0
4684 4765 4764 1e-08 0
4684 4685 4766 1e-08 0
4684 4766 4765 1e-08 0
4685 4686 4766 1e-08 0
4686 4767 4766 1e-08 0
4686 4687 4768 1e-08 0
4686 4768 4767 1e-08 0
4687 4688 4768 1e-08 0
4688 4769 4768 1e-08 0
4688 4689 4770 1e-08 0
4688 4770 4769 1e-08 0
4689 4690 4770 1e-08 0
4690 4771 4770 1e-08 0
4690 4691 4772 1e-08 0
4690 4772 4771 1e-08 0
4691 4692 4772 1e-08 0
4692 4773 4772 1e-08 0
4692 4693 4774 1e-08 0
4692 4774 4773 1e-08 0
4693 4694 4774 1e-08 0
4694 4775 4774 1e-08 0
4694 4695 4776 1e-08 0
4694 4776 4775 1e-08 0
4695 4696 4776 1e-08 0
4696 4777 4776 1e-08 0
4696 4697 4778 1e-08 0
4696 4778 4777 1e-08 0
4698 4699 4780 1e-08 0
4698 4780 4779 1e-08 0
4699 4700 4780 1e-08 0
4700 4781 4780 1e-08 0
4700 4701 4782 1e-08 0
4700 4782 4781 1e-08 0
4701 4702 4782 1e-08 0
4702 4783 4782 1e-08 0
4702 4703 4784 1e-08 0
4702 4784 4783 1e-08 0
4703 4704 4784 1e-08 0
4704 4785 4784 1e-08 0
4704 4705 4786 1e-08 0
4704 4786 4785 1e-08 0
4705 4706 4786 1e-08 0
4706 4787 4786 1e-08 0
4706 4707 4788 1e-08 0
4706 4788 4787 1e-08 0
4707 4708 4788 1e-08 0
4708 4789 4788 1e-08 0
4708 4709 4790 1e-08 0
4708 4790 4789 1e-08 0
4709 4710 4790 1e-08 0
4710 4791 4790 1e-08 0
4710 4711 4792 1e-08 0
4710 4792 4791 1e-08 0
4711 4712 4792 1e-08 0
4712 4793 4792 1e-08 0
4712 4713 4794 1e-08 0
4712 4794 4793 1e-08 0
4713 4714 4794 1e-08 0
4714 4795 4794 1e-08 0
4714 4715 4796 1e-08 0
4714 4796 4795 1e-08 0
4715 4716 4796 1e-08 0
4716 4797 4796 1e-08 0
4716 4717 4798 1e-08 0
4716 4798 4797 1e-08 0
4717 4718 4798 1e-08 0
4718 4799 4798 1e-08 0
4718 4719 4800 1e-08 0
4718 4800 4799 1e-08 0
4719 4720 4800 1e-08 0
4720 4801 4800 1e-08 0
4720 4721 4802 1e-08 0
4720 4802 4801 1e-08 0
4721 4722 4802 1e-08 0
4722 4803 4802 1e-08 0
4722 4723 4804 1e-08 0
4722 4804 4803 1e-08 0
4723 4724 4804 1e-08 0
4724 4805 4804 1e-08 0
4724 4725 4806 1e-08 0
4724 4806 4805 1e-08 0
4725 4726 4806 1e-08 0
4726 4807 4806 1e-08 0
4726 4727 4808 1e-08 0
4726 4808 4807 1e-08 0
4727 4728 4808 1e-08 0
4728 4809 4808 1e-08 0
4728 4729 4810 1e-08 0
4728 4810 4809 1e-08 0
4729 4730 4810 1e-08 0
4730 4811 4810 1e-08 0
4730 4731 4812 1e-08 0
4730 4812 4811 1e-08 0
4731 4732 4812 1e-08 0
4732 4813 4812 1e-08 0
4732 4733 4814 1e-08 0
4732 4814 4813 1e-08 0
4733 4734 4814 1e-08 0
4734 4815 4814 1e-08 0
4734 4735 4816 1e-08 0
4734 4816 4815 1e-08 0
4735 4736 4816 1e-08 0
4736 4817 4816 1e-08 0
4736 4737 4818 1e-08 0
4736 4818 4817 1e-08 0
4737 4738 4818 1e-08 0
4738 4819 4818 1e-08 0
4738 4739 4820 1e-08 0
4738 4820 4819 1e-08 0
4739 4740 4820 1e-08 0
4740 4821 4820 1e-08 0
4740 4741 4822 1e-08 0
4740 4822 4821 1e-08 0
4741 4742 4822 1e-08 0
4742 4823 4822 1e-08 0
4742 4743 4824 1e-08 0
4742 4824 4823 1e-08 0
4743 4744 4824 1e-08 0
4744 4825 4824 1e-08 0
4744 4745 4826 1e-08 0
4744 4826 4825 1e-08 0
4745 4746 4826 1e-08 0
4746 4827 4826 1e-08 0
4746 4747 4828 1e-08 0
4746 4828 4827 1e-08 0
4747 4748 4828 1e-08 0
4748 4829 4828 1e-08 0
4748 4749 4830 1e-08 0
4748 4830 4829 1e-08 0
4749 4750 4830 1e-08 0
4750 4831 4830 1e-08 0
4750 4751 4832 1e-08 0
4750 4832 4831 1e-08 0
4751 4752 4832 1e-08 0
4752 4833 4832 1e-08 0
4752 4753 4834 1e-08 0
4752 4834 4833 1e-08 0
4753 4754 4834 1e-08 0
4754 4835 4834 1e-08 0
4754 4755 4836 1e-08 0
4754 4836 4835 1e-08 0
4755 4756 4836 1e-08 0
4756 4837 4836 1e-08 0
4756 4757 4838 1e-08 0
4756 4838 4837 1e-08 0
4757 4758 4838 1e-08 0
4758 4839 4838 1e-08 0
4758 4759 4840 1e-08 0
4758 4840 4839 1e-08 0
4759 4760 4840 1e-08 0
4760 4841 4840 1e-08 0
4760 4761 4842 1e-08 0
4760 4842 4841 1e-08 0
4761 4762 4842 1e-08 0
4762 4843 4842 1e-08 0
4762 4763 4844 1e-08 0
4762 4844 4843 1e-08 0
4763 4764 4844 1e-08 0
4764 4845 4844 1e-08 0
4764 4765 4846 1e-08 0
4764 4846 4845 1e-08 0
4765 4766 4846 1e-08 0
4766 4847 4846 1e-08 0
4766 4767 4848 1e-08 0
4766 4848 4847 1e-08 0
4767 4768 4848 1e-08 0
4768 4849 4848 1e-08 0
4768 4769 4850 1e-08 0
4768 4850 4849 1e-08 0
4769 4770 4850 1e-08 0
4770 4851 4850 1e-08 0
4770 4771 4852 1e-08 0
4770 4852 4851 1e-08 0
4771 4772 4852 1e-08 0
4772 4853 4852 1e-08 0
4772 4773 4854 1e-08 0
4772 4854 4853 1e-08 0
4773 4774 4854 1e-08 0
4774 4855 4854 1e-08 0
4774 4775 4856 1e-08 0
4774 4856 4855 1e-08 0
4775 4776 4856 1e-08 0
4776 4857 4856 1e-08 0
4776 4777 4858 1e-08 0
4776 4858 4857 1e-08 0
4777 4778 4858 1e-08 0
4778 4859 4858 1e-08 0
4779 4780 4860 1e-08 0
4780 4861 4860 1e-08 0
4780 4781 4862 1e-08 0
4780 4862 4861 1e-08 0
4781 4782 4862 1e-08 0
4782 4863 4862 1e-08 0
4782 4783 4864 1e-08 0
4782 4864 4863 1e-08 0
4783 4784 4864 1e-08 0
4784 4865 4864 1e-08 0
4784 4785 4866 1e-08 0
4784 4866 4865 1e-08 0
4785 4786 4866 1e-08 0
4786 4867 4866 1e-08 0
4786 4787 4868 1e-08 0
4786 4868 4867 1e-08 0
4787 4788 4868 1e-08 0
4788 4869 4868 1e-08 0
4788 4789 4870 1e-08 0
4788 4870 4869 1e-08 0
4789 4790 4870 1e-08 0
4790 4871 4870 1e-08 0
4790 4791 4872 1e-08 0
4790 4872 4871 1e-08 0
4791 4792 4872 1e-08 0
4792 4873 4872 1e-08 0
4792 4793 4874 1e-08 0
4792 4874 4873 1e-08 0
4793 4794 4874 1e-08 0
4794 4875 4874 1e-08 0
4794 4795 4876 1e-08 0
4794 4876 4875 1e-08 0
4795 4796 4876 1e-08 0
4796 4877 4876 1e-08 0
4796 4797 4878 1e-08 0
4796 4878 4877 1e-08 0
4797 4798 4878 1e-08 0
4798 4879 4878 1e-08 0
4798 4799 4880 1e-08 0
4798 4880 4879 1e-08 0
4799 4800 4880 1e-08 0
4800 4881 4880 1e-08 0
4800 4801 4882 1e-08 0
4800 4882 4881 1e-08 0
4801 4802 4882 1e-08 0
4802 4883 4882 1e-08 0
4802 4803 4884 1e-08 0
4802 4884 4883 1e-08 0
4803 4804 4884 1e-08 0
4804 4885 4884 1e-08 0
4804 4805 4886 1e-08 0
4804 4886 4885 1e-08 0
4805 4806 4886 1e-08 0
4806 4887 4886 1e-08 0
4806 4807 4888 1e-08 0
4806 4888 4887 1e-08 0
4807 4808 4888 1e-08 0
4808 4889 4888 1e-08 0
4808 4809 4890 1e-08 0
4808 4890 4889 1e-08 0
4809 4810 4890 1e-08 0
4810 4891 4890 1e-08 0
4810 4811 4892 1e-08 0
4810 4892 4891 1e-08 0
4811 4812 4892 1e-08 0
4812 4893 4892 1e-08 0
4812 4813 4894 1e-08 0
4812 4894 4893 1e-08 0
4813 4814 4894 1e-08 0
4814 4895 4894 1e-08 0
4814 4815 4896 1e-08 0
4814 4896 4895 1e-08 0
4815 4816 4896 1e-08 0
4816 4897 4896 1e-08 0
4816 4817 4898 1e-08 0
4816 4898 4897 1e-08 0
4817 4818 4898 1e-08 0
4818 4899 4898 1e-08 0
4818 4819 4900 1e-08 0
4818 4900 4899 1e-08 0
4819 4820 4900 1e-08 0
4820 4901 4900 1e-08 0
4820 4821 4902 1e-08 0
4820 4902 4901 1e-08 0
4821 4822 4902 1e-08 0
4822 4903 4902 1e-08 0
4822 4823 4904 1e-08 0
4822 4904 4903 1e-08 0
4823 4824 4904 1e-08 0
4824 4905 4904 1e-08 0
4824 4825 4906 1e-08 0
4824 4906 4905 1e-08 0
4825 4826 4906 1e-08 0
4826 4907 4906 1e-08 0
4826 4827 4908 1e-08 0
4826 4908 4907 1e-08 0
4827 4828 4908 1e-08 0
4828 4909 4908 1e-08 0
4828 4829 4910 1e-08 0
4828 4910 4909 1e-08 0
4829 4830 4910 1e-08 0
4830 4911 4910 1e-08 0
4830 4831 4912 1e-08 0
4830 4912 4911 1e-08 0
4831 4832 4912 1e-08 0
4832 4913 4912 1e-08 0
4832 4833 4914 1e-08 0
4832 4914 4913 1e-08 0
4833 4834 4914 1e-08 0
4834 4915 4914 1e-08 0
4834 4835 4916 1e-08 0
4834 4916 4915 1e-08 0
4835 4836 4916 1e-08 0
4836 4917 4916 1e-08 0
4836 4837 4918 1e-08 0
4836 4918 4917 1e-08 0
4837 4838 4918 1e-08 0
4838 4919 4918 1e-08 0
4838 4839 4920 1e-08 0
4838 4920 4919 1e-08 0
4839 4840 4920 1e-08 0
4840 4921 4920 1e-08 0
4840 4841 4922 1e-08 0
4840 4922 4921 1e-08 0
4841 4842 4922 1e-08 0
4842 4923 4922 1e-08 0
4842 4843 4924 1e-08 0
4842 4924 4923 1e-08 0
4843 4844 4924 1e-08 0
4844 4925 4924 1e-08 0
4844 4845 4926 1e-08 0
4844 4926 4925 1e-08 0
4845 4846 4926 1e-08 0
4846 4927 4926 1e-08 0
4846 4847 4928 1e-08 0
4846 4928 4927 1e-08 0
4847 4848 4928 1e-08 0
4848 4929 4928 1e-08 0
4848 4849 4930 1e-08 0
4848 4930 4929 1e-08 0
4849 4850 4930 1e-08 0
4850 4931 4930 1e-08 0
4850 4851 4932 1e-08 0
4850 4932 4931 1e-08 0
4851 4852 4932 1e-08 0
4852 4933 4932 1e-08 0
4852 4853 4934 1e-08 0
4852 4934 4933 1e-08 0
4853 4854 4934 1e-08 0
4854 4935 4934 1e-08 0
4854 4855 4936 1e-08 0
4854 4936 4935 1e-08 0
4855 4856 4936 1e-08 0
4856 4937 4936 1e-08 0
4856 4857 4938 1e-08 0
4856 4938 4937 1e-08 0
4857 4858 4938 1e-08 0
4858 4939 4938 1e-08 0
4858 4859 4940 1e-08 0
4858 4940 4939 1e-08 0
4860 4861 4942 1e-08 0
4860 4942 4941 1e-08 0
4861 4862 4942 1e-08 0
4862 4943 4942 1e-08 0
4862 4863 4944 1e-08 0
4862 4944 4943 1e-08 0
4863 4864 4944 1e-08 0
4864 4945 4944 1e-08 0
4864 4865 4946 1e-08 0
4864 4946 4945 1e-08 0
4865 4866 4946 1e-08 0
4866 4947 4946 1e-08 0
4866 4867 4948 1e-08 0
4866 4948 4947 1e-08 0
4867 4868 4948 1e-08 0
4868 4949 4948 1e-08 0
4868 4869 4950 1e-08 0
4868 4950 4949 1e-08 0
4869 4870 4950 1e-08 0
4870 4951 4950 1e-08 0
4870 4871 4952 1e-08 0
4870 4952 4951 1e-08 0
4871 4872 4952 1e-08 0
4872 4953 4952 1e-08 0
4872 4873 4954 1e-08 0
4872 4954 4953 1e-08 0
4873 4874 4954 1e-08 0
4874 4955 4954 1e-08 0
4874 4875 4956 1e-08 0
4874 4956 4955 1e-08 0
4875 4876 4956 1e-08 0
4876 4957 4956 1e-08 0
4876 4877 4958 1e-08 0
4876 4958 4957 1e-08 0
4877 4878 4958 1e-08 0
4878 4959 4958 1e-08 0
4878 4879 4960 1e-08 0
4878 4960 4959 1e-08 0
4879 4880 4960 1e-08 0
4880 4961 4960 1e-08 0
4880 4881 4962 1e-08 0
4880 4962 4961 1e-08 0
4881 4882 4962 1e-08 0
4882 4963 4962 1e-08 0
4882 4883 4964 1e-08 0
4882 4964 4963 1e-08 0
4883 4884 4964 1e-08 0
4884 4965 4964 1e-08 0
4884 4885 4966 1e-08 0
4884 4966 4965 1e-08 0
4885 4886 4966 1e-08 0
4886 4967 4966 1e-08 0
4886 4887 4968 1e-08 0
4886 4968 4967 1e-08 0
4887 4888 4968 1e-08 0
4888 4969 4968 1e-08 0
4888 4889 4970 1e-08 0
4888 4970 4969 1e-08 0
4889 4890 4970 1e-08 0
4890 4971 4970 1e-08 0
4890 4891 4972 1e-08 0
4890 4972 4971 1e-08 0
4891 4892 4972 1e-08 0
4892 4973 4972 1e-08 0
4892 4893 4974 1e-08 0
4892 4974 4973 1e-08 0
4893 4894 4974 1e-08 0
4894 4975 4974 1e-08 0
4894 4895 4976 1e-08 0
4894 4976 4975 1e-08 0
4895 4896 4976 1e-08 0
4896 4977 4976 1e-08 0
4896 4897 4978 1e-08 0
4896 4978 4977 1e-08 0
4897 4898 4978 1e-08 0
4898 4979 4978 1e-08 0
4898 4899 4980 1e-08 0
4898 4980 4979 1e-08 0
4899 4900 4980 1e-08 0
4900 4981 4980 1e-08 0
4900 4901 4982 1e-08 0
4900 4982 4981 1e-08 0
4901 4902 4982 1e-08 0
4902 4983 4982 1e-08 0
4902 4903 4984 1e-08 0
4902 4984 4983 1e-08 0
4903 4904 4984 1e-08 0
4904 4985 4984 1e-08 0
4904 4905 4986 1e-08 0
4904 4986 4985 1e-08 0
4905 4906 4986 1e-08 0
4906 4987 4986 1e-08 0
4906 4907 4988 1e-08 0
4906 4988 4987 1e-08 0
4907 4908 4988 1e-08 0
4908 4989 4988 1e-08 0
4908 4909 4990 1e-08 0
4908 4990 4989 1e-08 0
4909 4910 4990 1e-08 0
4910 4991 4990 1e-08 0
4910 4911 4992 1e-08 0
4910 4992 4991 1e-08 0
4911 4912 4992 1e-08 0
4912 4993 4992 1e-08 0
4912 4913 4994 1e-08 0
4912 4994 4993 1e-08 0
4913 4914 4994 1e-08 0
4914 4995 4994 1e-08 0
4914 4915 4996 1e-08 0
4914 4996 4995 1e-08 0
4915 4916 4996 1e-08 0
4916 4997 4996 1e-08 0
4916 4917 4998 1e-08 0
4916 4998 4997 1e-08 0
4917 4918 4998 1e-08 0
4918 4999 4998 1e-08 0
4918 4919 5000 1e-08 0
4918 5000 4999 1e-08 0
4919 4920 5000 1e-08 0
4920 5001 5000 1e-08 0
4920 4921 5002 1e-08 0
4920 5002 5001 1e-08 0
4921 4922 5002 1e-08 0
4922 5003 5002 1e-08 0
4922 4923 5004 1e-08 0
4922 5004 5003 1e-08 0
4923 4924 5004 1e-08 0
4924 5005 5004 1e-08 0
4924 4925 5006 1e-08 0
4924 5006 5005 1e-08 0
4925 4926 5006 1e-08 0
4926 5007 5006 1e-08 0
4926 4927 5008 1e-08 0
4926 5008 5007 1e-08 0
4927 4928 5008 1e-08 0
4928 5009 5008 1e-08 0
4928 4929 5010 1e-08 0
4928 5010 5009 1e-08 0
4929 4930 5010 1e-08 0
4930 5011 5010 1e-08 0
4930 4931 5012 1e-08 0
4930 5012 5011 1e-08 0
4931 4932 5012 1e-08 0
4932 5013 5012 1e-08 0
4932 4933 5014 1e-08 0
4932 5014 5013 1e-08 0
4933 4934 5014 1e-08 0
4934 5015 5014 1e-08 0
4934 4935 5016 1e-08 0
4934 5016 5015 1e-08 0
4935 4936 5016 1e-08 0
4936 5017 5016 1e-08 0
4936 4937 5018 1e-08 0
4936 5018 5017 1e-08 0
4937 4938 5018 1e-08 0
4938 5019 5018 1e-08 0
4938 4939 5020 1e-08 0
4938 5020 5019 1e-08 0
4939 4940 5020 1e-08 0
4940 5021 5020 1e-08 0
4941 4942 5022 1e-08 0
4942 5023 5022 1e-08 0
4942 4943 5024 1e-08 0
4942 5024 5023 1e-08 0
4943 4944 5024 1e-08 0
4944 5025 5024 1e-08 0
4944 4945 5026 1e-08 0
4944 5026 5025 1e-08 0
4945 4946 5026 1e-08 0
4946 5027 5026 1e-08 0
4946 4947 5028 1e-08 0
4946 5028 5027 1e-08 0
4947 4948 5028 1e-08 0
4948 5029 5028 1e-08 0
4948 4949 5030 1e-08 0
4948 5030 5029 1e-08 0
4949 4950 5030 1e-08 0
4950 5031 5030 1e-08 0
4950 4951 5032 1e-08 0
4950 5032 5031 1e-08 0
4951 4952 5032 1e-08 0
4952 5033 5032 1e-08 0
4952 4953 5034 1e-08 0
4952 5034 5033 1e-08 0
4953 4954 5034 1e-08 0
4954 5035 5034 1e-08 0
4954 4955 5036 1e-08 0
4954 5036 5035 1e-08 0
4955 4956 5036 1e-08 0
4956 5037 5036 1e-08 0
4956 4957 5038 1e-08 0
4956 5038 5037 1e-08 0
4957 4958 5038 1e-08 0
4958 5039 5038 1e-08 0
4958 4959 5040 1e-08 0
4958 5040 5039 1e-08 0
4959 4960 5040 1e-08 0
4960 5041 5040 1e-08 0
4960 4961 5042 1e-08 0
4960 5042 5041 1e-08 0
4961 4962 5042 1e-08 0
4962 5043 5042 1e-08 0
4962 4963 5044 1e-08 0
4962 5044 5043 1e-08 0
4963 4964 5044 1e-08 0
4964 5045 5044 1e-08 0
4964 4965 5046 1e-08 0
4964 5046 5045 1e-08 0
4965 4966 5046 1e-08 0
4966 5047 5046 1e-08 0
4966 4967 5048 1e-08 0
4966 5048 5047 1e-08 0
4967 4968 5048 1e-08 0
4968 5049 5048 1e-08 0
4968 4969 5050 1e-08 0
4968 5050 5049 1e-08 0
4969 4970 5050 1e-08 0
4970 5051 5050 1e-08 0
4970 4971 5052 1e-08 0
4970 5052 5051 1e-08 0
4971 4972 5052 1e-08 0
4972 5053 5052 1e-08 0
4972 4973 5054 1e-08 0
4972 5054 5053 1e-08 0
4973 4974 5054 1e-08 0
4974 5055 5054 1e-08 0
4974 4975 5056 1e-08 0
4974 5056 5055 1e-08 0
4975 4976 5056 1e-08 0
4976 5057 5056 1e-08 0
4976 4977 5058 1e-08 0
4976 5058 5057 1e-08 0
4977 4978 5058 1e-08 0
4978 5059 5058 1e-08 0
4978 4979 5060 1e-08 0
4978 5060 5059 1e-08 0
4979 4980 5060 1e-08 0
4980 5061 5060 1e-08 0
4980 4981 5062 1e-08 0
4980 5062 5061 1e-08 0
4981 4982 5062 1e-08 0
4982 5063 5062 1e-08 0
4982 4983 5064 1e-08 0
4982 5064 5063 1e-08 0
4983 4984 5064 1e-08 0
4984 5065 5064 1e-08 0
4984 4985 5066 1e-08 0
4984 5066 5065 1e-08 0
4985 4986 5066 1e-08 0
4986 5067 5066 1e-08 0
4986 4987 5068 1e-08 0
4986 5068 5067 1e-08 0
4987 4988 5068 1e-08 0
4988 5069 5068 1e-08 0
4988 4989 5070 1e-08 0
4988 5070 5069 1e-08 0
4989 4990 5070 1e-08 0
4990 5071 5070 1e-08 0
4990 4991 5072 1e-08 0
4990 5072 5071 1e-08 0
4991 4992 5072 1e-08 0
4992 5073 5072 1e-08 0
4992 4993 5074 1e-08 0
4992 5074 5073 1e-08 0
4993 4994 5074 1e-08 0
4994 5075 5074 1e-08 0
4994 4995 5076 1e-08 0
4994 5076 5075 1e-08 0
4995 4996 5076 1e-08 0
4996 5077 5076 1e-08 0
4996 4997 5078 1e-08 0
4996 5078 5077 1e-08 0
4997 4998 5078 1e-08 0
4998 5079 5078 1e-08 0
4998 4999 5080 1e-08 0
4998 5080 5079 1e-08 0
4999 5000 5080 1e-08 0
5000 5081 5080 1e-08 0
5000 5001 5082 1e-08 0
5000 5082 5081 1e-08 0
5001 5002 5082 1e-08 0
5002 5083 5082 1e-08 0
5002 5003 5084 1e-08 0
5002 5084 5083 1e-08 0
5003 5004 5084 1e-08 0
5004 5085 5084 1e-08 0
5004 5005 5086 1e-08 0
5004 5086 5085 1e-08 0
5005 5006 5086 1e-08 0
5006 5087 5086 1e-08 0
5006 5007 5088 1e-08 0
5006 5088 5087 1e-08 0
5007 5008 5088 1e-08 0
5008 5089 5088 1e-08 0
5008 5009 5090 1e-08 0
5008 5090 5089 1e-08 0
5009 5010 5090 1e-08 0
5010 5091 5090 1e-08 0
5010 5011 5092 1e-08 0
5010 5092 5091 1e-08 0
5011 5012 5092 1e-08 0
5012 5093 5092 1e-08 0
5012 5013 5094 1e-08 0
5012 5094 5093 1e-08 0
5013 5014 5094 1e-08 0
5014 5095 5094 1e-08 0
5014 5015 5096 1e-08 0
5014 5096 5095 1e-08 0
5015 5016 5096 1e-08 0
5016 5097 5096 1e-08 0
5016 5017 5098 1e-08 0
5016 5098 5097 1e-08 0
5017 5018 5098 1e-08 0
5018 5099 5098 1e-08 0
5018 5019 5100 1e-08 0
5018 5100 5099 1e-08 0
5019 5020 5100 1e-08 0
5020 5101 5100 1e-08 0
5020 5021 5102 1e-08 0
5020 5102 5101 1e-08 0
5022 5023 5104 1e-08 0
5022 5104 5103 1e-08 0
5023 5024 5104 1e-08 0
5024 5105 5104 1e-08 0
5024 5025 5106 1e-08 0
5024 5106 5105 1e-08 0
5025 5026 5106 1e-08 0
5026 5107 5106 1e-08 0
5026 5027 5108 1e-08 0
5026 5108 5107 1e-08 0
5027 5028 5108 1e-08 0
5028 5109 5108 1e-08 0
5028 5029 5110 1e-08 0
5028 5110 5109 1e-08 0
5029 5030 5110 1e-08 0
5030 5111 5110 1e-08 0
5030 5031 5112 1e-08 0
5030 5112 5111 1e-08 0
5031 5032 5112 1e-08 0
5032 5113 5112 1e-08 0
5032 5033 5114 1e-08 0
5032 5114 5113 1e-08 0
5033 5034 5114 1e-08 0
5034 5115 5114 1e-08 0
5034 5035 5116 1e-08 0
5034 5116 5115 1e-08 0
5035 5036 5116 1e-08 0
5036 5117 5116 1e-08 0
5036 5037 5118 1e-08 0
5036 5118 5117 1e-08 0
5037 5038 5118 1e-08 0
5038 5119 5118 1e-08 0
5038 5039 5120 1e-08 0
5038 5120 5119 1e-08 0
5039 5040 5120 1e-08 0
5040 5121 5120 1e-08 0
5040 5041 5122 1e-08 0
5040 5122 5121 1e-08 0
5041 5042 5122 1e-08 0
5042 5123 5122 1e-08 0
5042 5043 5124 1e-08 0
5042 5124 5123 1e-08 0
5043 5044 5124 1e-08 0
5044 5125 5124 1e-08 0
5044 5045 5126 1e-08 0
5044 5126 5125 1e-08 0
5045 5046 5126 1e-08 0
5046 5127 5126 1e-08 0
5046 5047 5128 1e-08 0
5046 5128 5127 1e-08 0
5047 5048 5128 1e-08 0
5048 5129 5128 1e-08 0
5048 5049 5130 1e-08 0
5048 5130 5129 1e-08 0
5049 5050 5130 1e-08 0
5050 5131 5130 1e-08 0
5050 5051 5132 1e-08 0
5050 5132 5131 1e-08 0
5051 5052 5132 1e-08 0
5052 5133 5132 1e-08 0
5052 5053 5134 1e-08 0
5052 5134 5133 1e-08 0
5053 5054 5134 1e-08 0
5054 5135 5134 1e-08 0
5054 5055 5136 1e-08 0
5054 5136 5135 1e-08 0
5055 5056 5136 1e-08 0
5056 5137 5136 1e-08 0
5056 5057 5138 1e-08 0
5056 5138 5137 1e-08 0
5057 5058 5138 1e-08 0
5058 5139 5138 1e-08 0
5058 5059 5140 1e-08 0
5058 5140 5139 1e-08 0
5059 5060 5140 1e-08 0
5060 5141 5140 1e-08 0
5060 5061 5142 1e-08 0
5060 5142 5141 1e-08 0
5061 5062 5142 1e-08 0
5062 5143 5142 1e-08 0
5062 5063 5144 1e-08 0
5062 5144 5143 1e-08 0
5063 5064 5144 1e-08 0
5064 5145 5144 1e-08 0
5064 5065 5146 1e-08 0
5064 5146 5145 1e-08 0
5065 5066 5146 1e-08 0
5066 5147 5146 1e-08 0
5066 5067 5148 1e-08 0
5066 5148 5147 1e-08 0
5067 5068 5148 1e-08 0
5068 5149 5148 1e-08 0
5068 5069 5150 1e-08 0
5068 5150 5149 1e-08 0
5069 5070 5150 1e-08 0
5070 5151 5150 1e-08 0
5070 5071 5152 1e-08 0
5070 5152 5151 1e-08 0
5071 5072 5152 1e-08 0
5072 5153 5152 1e-08 0
5072 5073 5154 1e-08 0
5072 5154 5153 1e-08 0
5073 5074 5154 1e-08 0
5074 5155 5154 1e-08 0
5074 5075 5156 1e-08 0
5074 5156 5155 1e-08 0
5075 5076 5156 1e-08 0
5076 5157 5156 1e-08 0
5076 5077 5158 1e-08 0
5076 5158 5157 1e-08 0
5077 5078 5158 1e-08 0
5078 5159 5158 1e-08 0
5078 5079 5160 1e-08 0
5078 5160 5159 1e-08 0
5079 5080 5160 1e-08 0
5080 5161 5160 1e-08 0
5080 5081 5162 1e-08 0
5080 5162 5161 1e-08 0
5081 5082 5162 1e-08 0
5082 5163 5162 1e-08 0
5082 5083 5164 1e-08 0
5082 5164 5163 1e-08 0
5083 5084 5164 1e-08 0
5084 5165 5164 1e-08 0
5084 5085 5166 1e-08 0
5084 5166 5165 1e-08 0
5085 5086 5166 1e-08 0
5086 5167 5166 1e-08 0
5086 5087 5168 1e-08 0
5086 5168 5167 1e-08 0
5087 5088 5168 1e-08 0
5088 5169 5168 1e-08 0
5088 5089 5170 1e-08 0
5088 5170 5169 1e-08 0
5089 5090 5170 1e-08 0
5090 5171 5170 1e-08 0
5090 5091 5172 1e-08 0
5090 5172 5171 1e-08 0
5091 5092 5172 1e-08 0
5092 5173 5172 1e-08 0
5092 5093 5174 1e-08 0
5092 5174 5173 1e-08 0
5093 5094 5174 1e-08 0
5094 5175 5174 1e-08 0
5094 5095 5176 1e-08 0
5094 5176 5175 1e-08 0
5095 5096 5176 1e-08 0
5096 5177 5176 1e-08 0
5096 5097 5178 1e-08 0
5096 5178 5177 1e-08 0
5097 5098 5178 1e-08 0
5098 5179 5178 1e-08 0
5098 5099 5180 1e-08 0
5098 5180 5179 1e-08 0
5099 5100 5180 1e-08 0
5100 5181 5180 1e-08 0
5100 5101 5182 1e-08 0
5100 5182 5181 1e-08 0
5101 5102 5182 1e-08 0
5102 5183 5182 1e-08 0
5103 5104 5184 1e-08 0
5104 5185 5184 1e-08 0
5104 5105 5186 1e-08 0
5104 5186 5185 1e-08 0
5105 5106 5186 1e-08 0
5106 5187 5186 1e-08 0
5106 5107 5188 1e-08 0
5106 5188 5187 1e-08 0
5107 5108 5188 1e-08 0
5108 5189 5188 1e-08 0
5108 5109 5190 1e-08 0
5108 5190 5189 1e-08 0
5109 5110 5190 1e-08 0
5110 5191 5190 1e-08 0
5110 5111 5192 1e-08 0
5110 5192 5191 1e-08 0
5111 5112 5192 1e-08 0
5112 5193 5192 1e-08 0
5112 5113 5194 1e-08 0
5112 5194 5193 1e-08 0
5113 5114 5194 1e-08 0
5114 5195 5194 1e-08 0
5114 5115 5196 1e-08 0
5114 5196 5195 1e-08 0
5115 5116 5196 1e-08 0
5116 5197 5196 1e-08 0
5116 5117 5198 1e-08 0
5116 5198 5197 1e-08 0
5117 5118 5198 1e-08 0
5118 5199 5198 1e-08 0
5118 5119 5200 1e-08 0
5118 5200 5199 1e-08 0
5119 5120 5200 1e-08 0
5120 5201 5200 1e-08 0
5120 5121 5202 1e-08 0
5120 5202 5201 1e-08 0
5121 5122 5202 1e-08 0
5122 5203 5202 1e-08 0
5122 5123 5204 1e-08 0
5122 5204 5203 1e-08 0
5123 5124 5204 1e-08 0
5124 5205 5204 1e-08 0
5124 5125 5206 1e-08 0
5124 5206 5205 1e-08 0
5125 5126 5206 1e-08 0
5126 5207 5206 1e-08 0
5126 5127 5208 1e-08 0
5126 5208 5207 1e-08 0
5127 5128 5208 1e-08 0
5128 5209 5208 1e-08 0
5128 5129 5210 1e-08 0
5128 5210 5209 1e-08 0
5129 5130 5210 1e-08 0
5130 5211 5210 1e-08 0
5130 5131 5212 1e-08 0
5130 5212 5211 1e-08 0
5131 5132 5212 1e-08 0
5132 5213 5212 1e-08 0
5132 5133 5214 1e-08 0
5132 5214 5213 1e-08 0
5133 5134 5214 1e-08 0
5134 5215 5214 1e-08 0
5134 5135 5216 1e-08 0
5134 5216 5215 1e-08 0
5135 5136 5216 1e-08 0
5136 5217 5216 1e-08 0
5136 5137 5218 1e-08 0
5136 5218 5217 1e-08 0
5137 5138 5218 1e-08 0
5138 5219 5218 1e-08 0
5138 5139 5220 1e-08 0
5138 5220 5219 1e-08 0
5139 5140 5220 1e-08 0
5140 5221 5220 1e-08 0
5140 5141 5222 1e-08 0
5140 5222 5221 1e-08 0
5141 5142 5222 1e-08 0
5142 5223 5222 1e-08 0
5142 5143 5224 1e-08 0
5142 5224 5223 1e-08 0
5143 5144 5224 1e-08 0
5144 5225 5224 1e-08 0
5144 5145 5226 1e-08 0
5144 5226 5225 1e-08 0
5145 5146 5226 1e-08 0
5146 5227 5226 1e-08 0
5146 5147 5228 1e-08 0
5146 5228 5227 1e-08 0
5147 5148 5228 1e-08 0
5148 5229 5228 1e-08 0
5148 5149 5230 1e-08 0
5148 5230 5229 1e-08 0
5149 5150 5230 1e-08 0
5150 5231 5230 1e-08 0
5150 5151 5232 1e-08 0
5150 5232 5231 1e-08 0
5151 5152 5232 1e-08 0
5152 5233 5232 1e-08 0
5152 5153 5234 1e-08 0
5152 5234 5233 1e-08 0
5153 5154 5234 1e-08 0
5154 5235 5234 1e-08 0
5154 5155 5236 1e-08 0
5154 5236 5235 1e-08 0
5155 5156 5236 1e-08 0
5156 5237 5236 1e-08 0
5156 5157 5238 1e-08 0
5156 5238 5237 1e-08 0
5157 5158 5238 1e-08 0
5158 5239 5238 1e-08 0
5158 5159 5240 1e-08 0
5158 5240 5239 1e-08 0
5159 5160 5240 1e-08 0
5160 5241 5240 1e-08 0
5160 5161 5242 1e-08 0
5160 5242 5241 1e-08 0
5161 5162 5242 1e-08 0
5162 5243 5242 1e-08 0
5162 5163 5244 1e-08 0
5162 5244 5243 1e-08 0
5163 5164 5244 1e-08 0
5164 5245 5244 1e-08 0
5164 5165 5246 1e-08 0
5164 5246 5245 1e-08 0
5165 5166 5246 1e-08 0
5166 5247 5246 1e-08 0
5166 5167 5248 1e-08 0
5166 5248 5247 1e-08 0
5167 5168 5248 1e-08 0
5168 5249 5248 1e-08 0
5168 5169 5250 1e-08 0
5168 5250 5249 1e-08 0
5169 5170 5250 1e-08 0
5170 5251 5250 1e-08 0
5170 5171 5252 1e-08 0
5170 5252 5251 1e-08 0
5171 5172 5252 1e-08 0
5172 5253 5252 1e-08 0
5172 5173 5254 1e-08 0
5172 5254 5253 1e-08 0
5173 5174 5254 1e-08 0
5174 5255 5254 1e-08 0
5174 5175 5256 1e-08 0
5174 5256 5255 1e-08 0
5175 5176 5256 1e-08 0
5176 5257 5256 1e-08 0
5176 5177 5258 1e-08 0
5176 5258 5257 1e-08 0
5177 5178 5258 1e-08 0
5178 5259 5258 1e-08 0
5178 5179 5260 1e-08 0
5178 5260 5259 1e-08 0
5179 5180 5260 1e-08 0
5180 5261 5260 1e-08 0
5180 5181 5262 1e-08 0
5180 5262 5261 1e-08 0
5181 5182 5262 1e-08 0
5182 5263 5262 1e-08 0
5182 5183 5264 1e-08 0
5182 5264 5263 1e-08 0
5184 5185 5266 1e-08 0
5184 5266 5265 1e-08 0
5185 5186 5266 1e-08 0
5186 5267 5266 1e-08 0
5186 5187 5268 1e-08 0
5186 5268 5267 1e-08 0
5187 5188 5268 1e-08 0
5188 5269 5268 1e-08 0
5188 5189 5270 1e-08 0
5188 5270 5269 1e-08 0
5189 5190 5270 1e-08 0
5190 5271 5270 1e-08 0
5190 5191 5272 1e-08 0
5190 5272 5271 1e-08 0
5191 5192 5272 1e-08 0
5192 5273 5272 1e-08 0
5192 5193 5274 1e-08 0
5192 5274 5273 1e-08 0
5193 5194 5274 1e-08 0
5194 5275 5274 1e-08 0
5194 5195 5276 1e-08 0
5194 5276 5275 1e-08 0
5195 5196 5276 1e-08 0
5196 5277 5276 1e-08 0
5196 5197 5278 1e-08 0
5196 5278 5277 1e-08 0
5197 5198 5278 1e-08 0
5198 5279 5278 1e-08 0
5198 5199 5280 1e-08 0
5198 5280 5279 1e-08 0
5199 5200 5280 1e-08 0
5200 5281 5280 1e-08 0
5200 5201 5282 1e-08 0
5200 5282 5281 1e-08 0
5201 5202 5282 1e-08 0
5202 5283 5282 1e-08 0
5202 5203 5284 1e-08 0
5202 5284 5283 1e-08 0
5203 5204 5284 1e-08 0
5204 5285 5284 1e-08 0
5204 5205 5286 1e-08 0
5204 5286 5285 1e-08 0
5205 5206 5286 1e-08 0
5206 5287 5286 1e-08 0
5206 5207 5288 1e-08 0
5206 5288 5287 1e-08 0
5207 5208 5288 1e-08 0
5208 5289 5288 1e-08 0
5208 5209 5290 1e-08 0
5208 5290 5289 1e-08 0
5209 5210 5290 1e-08 0
5210 5291 5290 1e-08 0
5210 5211 5292 1e-08 0
5210 5292 5291 1e-08 0
5211 5212 5292 1e-08 0
5212 5293 5292 1e-08 0
5212 5213 5294 1e-08 0
5212 5294 5293 1e-08 0
5213 5214 5294 1e-08 0
5214 5295 5294 1e-08 0
5214 5215 5296 1e-08 0
5214 5296 5295 1e-08 0
5215 5216 5296 1e-08 0
5216 5297 5296 1e-08 0
5216 5217 5298 1e-08 0
5216 5298 5297 1e-08 0
5217 5218 5298 1e-08 0
5218 5299 5298 1e-08 0
5218 5219 5300 1e-08 0
5218 5300 5299 1e-08 0
5219 5220 5300 1e-08 0
5220 5301 5300 1e-08 0
5220 5221 5302 1e-08 0
5220 5302 5301 1e-08 0
5221 5222 5302 1e-08 0
5222 5303 5302 1e-08 0
5222 5223 5304 1e-08 0
5222 5304 5303 1e-08 0
5223 5224 5304 1e-08 0
5224 5305 5304 1e-08 0
5224 5225 5306 1e-08 0
5224 5306 5305 1e-08 0
5225 5226 5306 1e-08 0
5226 5307 5306 1e-08 0
5226 5227 5308 1e-08 0
5226 5308 5307 1e-08 0
5227 5228 5308 1e-08 0
5228 5309 5308 1e-08 0
5228 5229 5310 1e-08 0
5228 5310 5309 1e-08 0
5229 5230 5310 1e-08 0
5230 5311 5310 1e-08 0
5230 5231 5312 1e-08 0
5230 5312 5311 1e-08 0
5231 5232 5312 1e-08 0
5232 5313 5312 1e-08 0
5232 5233 5314 1e-08 0
5232 5314 5313 1e-08 0
5233 5234 5314 1e-08 0
5234 5315 5314 1e-08 0
5234 5235 5316 1e-08 0
5234 5316 5315 1e-08 0
5235 5236 5316 1e-08 0
5236 5317 5316 1e-08 0
5236 5237 5318 1e-08 0
5236 5318 5317 1e-08 0
5237 5238 5318 1e-08 0
5238 5319 5318 1e-08 0
5238 5239 5320 1e-08 0
5238 5320 5319 1e-08 0
5239 5240 5320 1e-08 0
5240 5321 5320 1e-08 0
5240 5241 5322 1e-08 0
5240 5322 5321 1e-08 0
5241 5242 5322 1e-08 0
5242 5323 5322 1e-08 0
5242 5243 5324 1e-08 0
5242 5324 5323 1e-08 0
5243 5244 5324 1e-08 0
5244 5325 5324 1e-08 0
5244 5245 5326 1e-08 0
5244 5326 5325 1e-08 0
5245 5246 5326 1e-08 0
5246 5327 5326 1e-08 0
5246 5247 5328 1e-08 0
5246 5328 5327 1e-08 0
5247 5248 5328 1e-08 0
5248 5329 5328 1e-08 0
5248 5249 5330 1e-08 0
5248 5330 5329 1e-08 0
5249 5250 5330 1e-08 0
5250 5331 5330 1e-08 0
5250 5251 5332 1e-08 0
5250 5332 5331 1e-08 0
5251 5252 5332 1e-08 0
5252 5333 5332 1e-08 0
5252 5253 5334 1e-08 0
5252 5334 5333 1e-08 0
5253 5254 5334 1e-08 0
5254 5335 5334 1e-08 0
5254 5255 5336 1e-08 0
5254 5336 5335 1e-08 0
5255 5256 5336 1e-08 0
5256 5337 5336 1e-08 0
5256 5257 5338 1e-08 0
5256 5338 5337 1e-08 0
5257 5258 5338 1e-08 0
5258 5339 5338 1e-08 0
5258 5259 5340 1e-08 0
5258 5340 5339 1e-08 0
5259 5260 5340 1e-08 0
5260 5341 5340 1e-08 0
5260 5261 5342 1e-08 0
5260 5342 5341 1e-08 0
5261 5262 5342 1e-08 0
5262 5343 5342 1e-08 0
5262 5263 5344 1e-08 0
5262 5344 5343 1e-08 0
5263 5264 5344 1e-08 0
5264 5345 5344 1e-08 0
5265 5266 5346 1e-08 0
5266 5347 5346 1e-08 0
5266 5267 5348 1e-08 0
5266 5348 5347 1e-08 0
5267 5268 5348 1e-08 0
5268 5349 5348 1e-08 0
5268 5269 5350 1e-08 0
5268 5350 5349 1e-08 0
5269 5270 5350 1e-08 0
5270 5351 5350 1e-08 0
5270 5271 5352 1e-08 0
5270 5352 5351 1e-08 0
5271 5272 5352 1e-08 0
5272 5353 5352 1e-08 0
5272 5273 5354 1e-08 0
5272 5354 5353 1e-08 0
5273 5274 5354 1e-08 0
5274 5355 5354 1e-08 0
5274 5275 5356 1e-08 0
5274 5356 5355 1e-08 0
5275 5276 5356 1e-08 0
5276 5357 5356 1e-08 0
5276 5277 5358 1e-08 0
5276 5358 5357 1e-08 0
5277 5278 5358 1e-08 0
5278 5359 5358 1e-08 0
5278 5279 5360 1e-08 0
5278 5360 5359 1e-08 0
5279 5280 5360 1e-08 0
5280 5361 5360 1e-08 0
5280 5281 5362 1e-08 0
5280 5362 5361 1e-08 0
5281 5282 5362 1e-08 0
5282 5363 5362 1e-08 0
5282 5283 5364 1e-08 0
5282 5364 5363 1e-08 0
5283 5284 5364 1e-08 0
5284 5365 5364 1e-08 0
5284 5285 5366 1e-08 0
5284 5366 5365 1e-08 0
5285 5286 5366 1e-08 0
5286 5367 5366 1e-08 0
5286 5287 5368 1e-08 0
5286 5368 5367 1e-08 0
5287 5288 5368 1e-08 0
5288 5369 5368 1e-08 0
5288 5289 5370 1e-08 0
5288 5370 5369 1e-08 0
5289 5290 5370 1e-08 0
5290 5371 5370 1e-08 0
5290 5291 5372 1e-08 0
5290 5372 5371 1e-08 0
5291 5292 5372 1e-08 0
5292 5373 5372 1e-08 0
5292 5293 5374 1e-08 0
5292 5374 5373 1e-08 0
5293 5294 5374 1e-08 0
5294 5375 5374 1e-08 0
5294 5295 5376 1e-08 0
5294 5376 5375 1e-08 0
5295 5296 5376 1e-08 0
5296 5377 5376 1e-08 0
5296 5297 5378 1e-08 0
5296 5378 5377 1e-08 0
5297 5298 5378 1e-08 0
5298 5379 5378 1e-08 0
5298 5299 5380 1e-08 0
5298 5380 5379 1e-08 0
5299 5300 5380 1e-08 0
5300 5381 5380 1e-08 0
5300 5301 5382 1e-08 0
5300 5382 5381 1e-08 0
5301 5302 5382 1e-08 0
5302 5383 5382 1e-08 0
5302 5303 5384 1e-08 0
5302 5384 5383 1e-08 0
5303 5304 5384 1e-08 0
5304 5385 5384 1e-08 0
5304 5305 5386 1e-08 0
5304 5386 5385 1e-08 0
5305 5306 5386 1e-08 0
5306 5387 5386 1e-08 0
5306 5307 5388 1e-08 0
5306 5388 5387 1e-08 0
5307 5308 5388 1e-08 0
5308 5389 5388 1e-08 0
5308 5309 5390 1e-08 0
5308 5390 5389 1e-08 0
5309 5310 5390 1e-08 0
5310 5391 5390 1e-08 0
5310 5311 5392 1e-08 0
5310 5392 5391 1e-08 0
5311 5312 5392 1e-08 0
5312 5393 5392 1e-08 0
5312 5313 5394 1e-08 0
5312 5394 5393 1e-08 0
5313 5314 5394 1e-08 0
5314 5395 5394 1e-08 0
5314 5315 5396 1e-08 0
5314 5396 5395 1e-08 0
5315 5316 5396 1e-08 0
5316 5397 5396 1e-08 0
5316 5317 5398 1e-08 0
5316 5398 5397 1e-08 0
5317 5318 5398 1e-08 0
5318 5399 5398 1e-08 0
5318 5319 5400 1e-08 0
5318 5400 5399 1e-08 0
5319 5320 5400 1e-08 0
5320 5401 5400 1e-08 0
5320 5321 5402 1e-08 0
5320 5402 5401 1e-08 0
5321 5322 5402 1e-08 0
5322 5403 5402 1e-08 0
5322 5323 5404 1e-08 0
5322 5404 5403 1e-08 0
5323 5324 5404 1e-08 0
5324 5405 5404 1e-08 0
5324 5325 5406 1e-08 0
5324 5406 5405 1e-08 0
5325 5326 5406 1e-08 0
5326 5407 5406 1e-08 0
5326 5327 5408 1e-08 0
5326 5408 5407 1e-08 0
5327 5328 5408 1e-08 0
5328 5409 5408 1e-08 0
5328 5329 5410 1e-08 0
5328 5410 5409 1e-08 0
5329 5330 5410 1e-08 0
5330 5411 5410 1e-08 0
5330 5331 5412 1e-08 0
5330 5412 5411 1e-08 0
5331 5332 5412 1e-08 0
5332 5413 5412 1e-08 0
5332 5333 5414 1e-08 0
5332 5414 5413 1e-08 0
5333 5334 5414 1e-08 0
5334 5415 5414 1e-08 0
5334 5335 5416 1e-08 0
5334 5416 5415 1e-08 0
5335 5336 5416 1e-08 0
5336 5417 5416 1e-08 0
5336 5337 5418 1e-08 0
5336 5418 5417 1e-08 0
5337 5338 5418 1e-08 0
5338 5419 5418 1e-08 0
5338 5339 5420 1e-08 0
5338 5420 5419 1e-08 0
5339 5340 5420 1e-08 0
5340 5421 5420 1e-08 0
5340 5341 5422 1e-08 0
5340 5422 5421 1e-08 0
5341 5342 5422 1e-08 0
5342 5423 5422 1e-08 0
5342 5343 5424 1e-08 0
5342 5424 5423 1e-08 0
5343 5344 5424 1e-08 0
5344 5425 5424 1e-08 0
5344 5345 5426 1e-08 0
5344 5426 5425 1e-08 0
5346 5347 5428 1e-08 0
5346 5428 5427 1e-08 0
5347 5348 5428 1e-08 0
5348 5429 5428 1e-08 0
5348 5349 5430 1e-08 0
5348 5430 5429 1e-08 0
5349 5350 5430 1e-08 0
5350 5431 5430 1e-08 0
5350 5351 5432 1e-08 0
5350 5432 5431 1e-08 0
5351 5352 5432 1e-08 0
5352 5433 5432 1e-08 0
5352 5353 5434 1e-08 0
5352 5434 5433 1e-08 0
5353 5354 5434 1e-08 0
5354 5435 5434 1e-08 0
5354 5355 5436 1e-08 0
5354 5436 5435 1e-08 0
5355 5356 5436 1e-08 0
5356 5437 5436 1e-08 0
5356 5357 5438 1e-08 0
5356 5438 5437 1e-08 0
5357 5358 5438 1e-08 0
5358 5439 5438 1e-08 0
5358 5359 5440 1e-08 0
5358 5440 5439 1e-08 0
5359 5360 5440 1e-08 0
5360 5441 5440 1e-08 0
5360 5361 5442 1e-08 0
5360 5442 5441 1e-08 0
5361 5362 5442 1e-08 0
5362 5443 5442 1e-08 0
5362 5363 5444 1e-08 0
5362 5444 5443 1e-08 0
5363 5364 5444 1e-08 0
5364 5445 5444 1e-08 0
5364 5365 5446 1e-08 0
5364 5446 5445 1e-08 0
5365 5366 5446 1e-08 0
5366 5447 5446 1e-08 0
5366 5367 5448 1e-08 0
5366 5448 5447 1e-08 0
5367 5368 5448 1e-08 0
5368 5449 5448 1e-08 0
5368 5369 5450 1e-08 0
5368 5450 5449 1e-08 0
5369 5370 5450 1e-08 0
5370 5451 5450 1e-08 0
5370 5371 5452 1e-08 0
5370 5452 5451 1e-08 0
5371 5372 5452 1e-08 0
5372 5453 5452 1e-08 0
5372 5373 5454 1e-08 0
5372 5454 5453 1e-08 0
5373 5374 5454 1e-08 0
5374 5455 5454 1e-08 0
5374 5375 5456 1e-08 0
5374 5456 5455 1e-08 0
5375 5376 5456 1e-08 0
5376 5457 5456 1e-08 0
5376 5377 5458 1e-08 0
5376 5458 5457 1e-08 0
5377 5378 5458 1e-08 0
5378 5459 5458 1e-08 0
5378 5379 5460 1e-08 0
5378 5460 5459 1e-08 0
5379 5380 5460 1e-08 0
5380 5461 5460 1e-08 0
5380 5381 5462 1e-08 0
5380 5462 5461 1e-08 0
5381 5382 5462 1e-08 0
5382 5463 5462 1e-08 0
5382 5383 5464 1e-08 0
5382 5464 5463 1e-08 0
5383 5384 5464 1e-08 0
5384 5465 5464 1e-08 0
5384 5385 5466 1e-08 0
5384 5466 5465 1e-08 0
5385 5386 5466 1e-08 0
5386 5467 5466 1e-08 0
5386 5387 5468 1e-08 0
5386 5468 5467 1e-08 0
5387 5388 5468 1e-08 0
5388 5469 5468 1e-08 0
5388 5389 5470 1e-08 0
5388 5470 5469 1e-08 0
5389 5390 5470 1e-08 0
5390 5471 5470 1e-08 0
5390 5391 5472 1e-08 0
5390 5472 5471 1e-08 0
5391 5392 5472 1e-08 0
5392 5473 5472 1e-08 0
5392 5393 5474 1e-08 0
5392 5474 5473 1e-08 0
5393 5394 5474 1e-08 0
5394 5475 5474 1e-08 0
5394 5395 5476 1e-08 0
5394 5476 5475 1e-08 0
5395 5396 5476 1e-08 0
5396 5477 5476 1e-08 0
5396 5397 5478 1e-08 0
5396 5478 5477 1e-08 0
5397 5398 5478 1e-08 0
5398 5479 5478 1e-08 0
5398 5399 5480 1e-08 0
5398 5480 5479 1e-08 0
5399 5400 5480 1e-08 0
5400 5481 5480 1e-08 0
5400 5401 5482 1e-08 0
5400 5482 5481 1e-08 0
5401 5402 5482 1e-08 0
5402 5483 5482 1e-08 0
5402 5403 5484 1e-08 0
5402 5484 5483 1e-08 0
5403 5404 5484 1e-08 0
5404 5485 5484 1e-08 0
5404 5405 5486 1e-08 0
5404 5486 5485 1e-08 0
5405 5406 5486 1e-08 0
5406 5487 5486 1e-08 0
5406 5407 5488 1e-08 0
5406 5488 5487 1e-08 0
5407 5408 5488 1e-08 0
5408 5489 5488 1e-08 0
5408 5409 5490 1e-08 0
5408 5490 5489 1e-08 0
5409 5410 5490 1e-08 0
5410 5491 5490 1e-08 0
5410 5411 5492 1e-08 0
5410 5492 5491 1e-08 0
5411 5412 5492 1e-08 0
5412 5493 5492 1e-08 0
5412 5413 5494 1e-08 0
5412 5494 5493 1e-08 0
5413 5414 5494 1e-08 0
5414 5495 5494 1e-08 0
5414 5415 5496 1e-08 0
5414 5496 5495 1e-08 0
5415 5416 5496 1e-08 0
5416 5497 5496 1e-08 0
5416 5417 5498 1e-08 0
5416 5498 5497 1e-08 0
5417 5418 5498 1e-08 0
5418 5499 5498 1e-08 0
5418 5419 5500 1e-08 0
5418 5500 5499 1e-08 0
5419 5420 5500 1e-08 0
5420 5501 5500 1e-08 0
5420 5421 5502 1e-08 0
5420 5502 5501 1e-08 0
5421 5422 5502 1e-08 0
5422 5503 5502 1e-08 0
5422 5423 5504 1e-08 0
5422 5504 5503 1e-08 0
5423 5424 5504 1e-08 0
5424 5505 5504 1e-08 0
5424 5425 5506 1e-08 0
5424 5506 5505 1e-08 0
5425 5426 5506 1e-08 0
5426 5507 5506 1e-08 0
5427 5428 5508 1e-08 0
5428 5509 5508 1e-08 0
5428 5429 5510 1e-08 0
5428 5510 5509 1e-08 0
5429 5430 5510 1e-08 0
5430 5511 5510 1e-08 0
5430 5431 5512 1e-08 0
5430 5512 5511 1e-08 0
5431 5432 5512 1e-08 0
5432 5513 5512 1e-08 0
5432 5433 5514 1e-08 0
5432 5514 5513 1e-08 0
5433 5434 5514 1e-08 0
5434 5515 5514 1e-08 0
5434 5435 5516 1e-08 0
5434 5516 5515 1e-08 0
5435 5436 5516 1e-08 0
5436 5517 5516 1e-08 0
5436 5437 5518 1e-08 0
5436 5518 5517 1e-08 0
5437 5438 5518 1e-08 0
5438 5519 5518 1e-08 0
5438 5439 5520 1e-08 0
5438 5520 5519 1e-08 0
5439 5440 5520 1e-08 0
5440 5521 5520 1e-08 0
5440 5441 5522 1e-08 0
5440 5522 5521 1e-08 0
5441 5442 5522 1e-08 0
5442 5523 5522 1e-08 0
5442 5443 5524 1e-08 0
5442 5524 5523 1e-08 0
5443 5444 5524 1e-08 0
5444 5525 5524 1e-08 0
5444 5445 5526 1e-08 0
5444 5526 5525 1e-08 0
5445 5446 5526 1e-08 0
5446 5527 5526 1e-08 0
5446 5447 5528 1e-08 0
5446 5528 5527 1e-08 0
5447 5448 5528 1e-08 0
5448 5529 5528 1e-08 0
5448 5449 5530 1e-08 0
5448 5530 5529 1e-08 0
5449 5450 5530 1e-08 0
5450 5531 5530 1e-08 0
5450 5451 5532 1e-08 0
5450 5532 5531 1e-08 0
5451 5452 5532 1e-08 0
5452 5533 5532 1e-08 0
5452 5453 5534 1e-08 0
5452 5534 5533 1e-08 0
5453 5454 5534 1e-08 0
5454 5535 5534 1e-08 0
5454 5455 5536 1e-08 0
5454 5536 5535 1e-08 0
5455 5456 5536 1e-08 0
5456 5537 5536 1e-08 0
5456 5457 5538 1e-08 0
5456 5538 5537 1e-08 0
5457 5458 5538 1e-08 0
5458 5539 5538 1e-08 0
5458 5459 5540 1e-08 0
5458 5540 5539 1e-08 0
5459 5460 5540 1e-08 0
5460 5541 5540 1e-08 0
5460 5461 5542 1e-08 0
5460 5542 5541 1e-08 0
5461 5462 5542 1e-08 0
5462 5543 5542 1e-08 0
5462 5463 5544 1e-08 0
5462 5544 5543 1e-08 0
5463 5464 5544 1e-08 0
5464 5545 5544 1e-08 0
5464 5465 5546 1e-08 0
5464 5546 5545 1e-08 0
5465 5466 5546 1e-08 0
5466 5547 5546 1e-08 0
5466 5467 5548 1e-08 0
5466 5548 5547 1e-08 0
5467 5468 5548 1e-08 0
5468 5549 5548 1e-08 0
5468 5469 5550 1e-08 0
5468 5550 5549 1e-08 0
5469 5470 5550 1e-08 0
5470 5551 5550 1e-08 0
5470 5471 5552 1e-08 0
5470 5552 5551 1e-08 0
5471 5472 5552 1e-08 0
5472 5553 5552 1e-08 0
5472 5473 5554 1e-08 0
5472 5554 5553 1e-08 0
5473 5474 5554 1e-08 0
5474 5555 5554 1e-08 0
5474 5475 5556 1e-08 0
5474 5556 5555 1e-08 0
5475 5476 5556 1e-08 0
5476 5557 5556 1e-08 0
5476 5477 5558 1e-08 0
5476 5558 5557 1e-08 0
5477 5478 5558 1e-08 0
5478 5559 5558 1e-08 0
5478 5479 5560 1e-08 0
5478 5560 5559 1e-08 0
5479 5480 5560 1e-08 0
5480 5561 5560 1e-08 0
5480 5481 5562 1e-08 0
5480 5562 5561 1e-08 0
5481 5482 5562 1e-08 0
5482 5563 5562 1e-08 0
5482 5483 5564 1e-08 0
5482 5564 5563 1e-08 0
5483 5484 5564 1e-08 0
5484 5565 5564 1e-08 0
5484 5485 5566 1e-08 0
5484 5566 5565 1e-08 0
5485 5486 5566 1e-08 0
5486 5567 5566 1e-08 0
5486 5487 5568 1e-08 0
5486 5568 5567 1e-08 0
5487 5488 5568 1e-08 0
5488 5569 5568 1e-08 0
5488 5489 5570 1e-08 0
5488 5570 5569 1e-08 0
5489 5490 5570 1e-08 0
5490 5571 5570 1e-08 0
5490 5491 5572 1e-08 0
5490 5572 5571 1e-08 0
5491 5492 5572 1e-08 0
5492 5573 5572 1e-08 0
5492 5493 5574 1e-08 0
5492 5574 5573 1e-08 0
5493 5494 5574 1e-08 0
5494 5575 5574 1e-08 0
5494 5495 5576 1e-08 0
5494 5576 5575 1e-08 0
5495 5496 5576 1e-08 0
5496 5577 5576 1e-08 0
5496 5497 5578 1e-08 0
5496 5578 5577 1e-08 0
5497 5498 5578 1e-08 0
5498 5579 5578 1e-08 0
5498 5499 5580 1e-08 0
5498 5580 5579 1e-08 0
5499 5500 5580 1e-08 0
5500 5581 5580 1e-08 0
5500 5501 5582 1e-08 0
5500 5582 5581 1e-08 0
5501 5502 5582 1e-08 0
5502 5583 5582 1e-08 0
5502 5503 5584 1e-08 0
5502 5584 5583 1e-08 0
5503 5504 5584 1e-08 0
5504 5585 5584 1e-08 0
5504 5505 5586 1e-08 0
5504 5586 5585 1e-08 0
5505 5506 5586 1e-08 0
5506 5587 5586 1e-08 0
5506 5507 5588 1e-08 0
5506 5588 5587 1e-08 0
5508 5509 5590 1e-08 0
5508 5590 5589 1e-08 0
5509 5510 5590 1e-08 0
5510 5591 5590 1e-08 0
5510 5511 5592 1e-08 0
5510 5592 5591 1e-08 0
5511 5512 5592 1e-08 0
5512 5593 5592 1e-08 0
5512 5513 5594 1e-08 0
5512 5594 5593 1e-08 0
5513 5514 5594 1e-08 0
5514 5595 5594 1e-08 0
5514 5515 5596 1e-08 0
5514 5596 5595 1e-08 0
5515 5516 5596 1e-08 0
5516 5597 5596 1e-08 0
5516 5517 5598 1e-08 0
5516 5598 5597 1e-08 0
5517 5518 5598 1e-08 0
5518 5599 5598 1e-08 0
5518 5519 5600 1e-08 0
5518 5600 5599 1e-08 0
5519 5520 5600 1e-08 0
5520 5601 5600 1e-08 0
5520 5521 5602 1e-08 0
5520 5602 5601 1e-08 0
5521 5522 5602 1e-08 0
5522 5603 5602 1e-08 0
5522 5523 5604 1e-08 0
5522 5604 5603 1e-08 0
5523 5524 5604 1e-08 0
5524 5605 5604 1e-08 0
5524 5525 5606 1e-08 0
5524 5606 5605 1e-08 0
5525 5526 5606 1e-08 0
5526 5607 5606 1e-08 0
5526 5527 5608 1e-08 0
5526 5608 5607 1e-08 0
5527 5528 5608 1e-08 0
5528 5609 5608 1e-08 0
5528 5529 5610 1e-08 0
5528 5610 5609 1e-08 0
5529 5530 5610 1e-08 0
5530 5611 5610 1e-08 0
5530 5531 5612 1e-08 0
5530 5612 5611 1e-08 0
5531 5532 5612 1e-08 0
5532 5613 5612 1e-08 0
5532 5533 5614 1e-08 0
5532 5614 5613 1e-08 0
5533 5534 5614 1e-08 0
5534 5615 5614 1e-08 0
5534 5535 5616 1e-08 0
5534 5616 5615 1e-08 0
5535 5536 5616 1e-08 0
5536 5617 5616 1e-08 0
5536 5537 5618 1e-08 0
5536 5618 5617 1e-08 0
5537 5538 5618 1e-08 0
5538 5619 5618 1e-08 0
5538 5539 5620 1e-08 0
5538 5620 5619 1e-08 0
5539 5540 5620 1e-08 0
5540 5621 5620 1e-08 0
5540 5541 5622 1e-08 0
5540 5622 5621 1e-08 0
5541 5542 5622 1e-08 0
5542 5623 5622 1e-08 0
5542 5543 5624 1e-08 0
5542 5624 5623 1e-08 0
5543 5544 5624 1e-08 0
5544 5625 5624 1e-08 0
5544 5545 5626 1e-08 0
5544 5626 5625 1e-08 0
5545 5546 5626 1e-08 0
5546 5627 5626 1e-08 0
5546 5547 5628 1e-08 0
5546 5628 5627 1e-08 0
5547 5548 5628 1e-08 0
5548 5629 5628 1e-08 0
5548 5549 5630 1e-08 0
5548 5630 5629 1e-08 0
5549 5550 5630 1e-08 0
5550 5631 5630 1e-08 0
5550 5551 5632 1e-08 0
5550 5632 5631 1e-08 0
5551 5552 5632 1e-08 0
5552 5633 5632 1e-08 0
5552 5553 5634 1e-08 0
5552 5634 5633 1e-08 0
5553 5554 5634 1e-08 0
5554 5635 5634 1e-08 0
5554 5555 5636 1e-08 0
5554 5636 5635 1e-08 0
5555 5556 5636 1e-08 0
5556 5637 5636 1e-08 0
5556 5557 5638 1e-08 0
5556 5638 5637 1e-08 0
5557 5558 5638 1e-08 0
5558 5639 5638 1e-08 0
5558 5559 5640 1e-08 0
5558 5640 5639 1e-08 0
5559 5560 5640 1e-08 0
5560 5641 5640 1e-08 0
5560 5561 5642 1e-08 0
5560 5642 5641 1e-08 0
5561 5562 5642 1e-08 0
5562 5643 5642 1e-08 0
5562 5563 5644 1e-08 0
5562 5644 5643 1e-08 0
5563 5564 5644 1e-08 0
5564 5645 5644 1e-08 0
5564 5565 5646 1e-08 0
5564 5646 5645 1e-08 0
5565 5566 5646 1e-08 0
5566 5647 5646 1e-08 0
5566 5567 5648 1e-08 0
5566 5648 5647 1e-08 0
5567 5568 5648 1e-08 0
5568 5649 5648 1e-08 0
5568 5569 5650 1e-08 0
5568 5650 5649 1e-08 0
5569 5570 5650 1e-08 0
5570 5651 5650 1e-08 0
5570 5571 5652 1e-08 0
5570 5652 5651 1e-08 0
5571 5572 5652 1e-08 0
5572 5653 5652 1e-08 0
5572 5573 5654 1e-08 0
5572 5654 5653 1e-08 0
5573 5574 5654 1e-08 0
5574 5655 5654 1e-08 0
5574 5575 5656 1e-08 0
5574 5656 5655 1e-08 0
5575 5576 5656 1e-08 0
5576 5657 5656 1e-08 0
5576 5577 5658 1e-08 0
5576 5658 5657 1e-08 0
5577 5578 5658 1e-08 0
5578 5659 5658 1e-08 0
5578 5579 5660 1e-08 0
5578 5660 5659 1e-08 0
5579 5580 5660 1e-08 0
5580 5661 5660 1e-08 0
5580 5581 5662 1e-08 0
5580 5662 5661 1e-08 0
5581 5582 5662 1e-08 0
5582 5663 5662 1e-08 0
5582 5583 5664 1e-08 0
5582 5664 5663 1e-08 0
5583 5584 5664 1e-08 0
5584 5665 5664 1e-08 0
5584 5585 5666 1e-08 0
5584 5666 5665 1e-08 0
5585 5586 5666 1e-08 0
5586 5667 5666 1e-08 0
5586 5587 5668 1e-08 0
5586 5668 5667 1e-08 0
5587 5588 5668 1e-08 0
5588 5669 5668 1e-08 0
5589 5590 5670 1e-08 0
5590 5671 5670 1e-08 0
5590 5591 5672 1e-08 0
5590 5672 5671 1e-08 0
5591 5592 5672 1e-08 0
5592 5673 5672 1e-08 0
5592 5593 5674 1e-08 0
5592 5674 5673 1e-08 0
5593 5594 5674 1e-08 0
5594 5675 5674 1e-08 0
5594 5595 5676 1e-08 0
5594 5676 5675 1e-08 0
5595 5596 5676 1e-08 0
5596 5677 5676 1e-08 0
5596 5597 5678 1e-08 0
5596 5678 5677 1e-08 0
5597 5598 5678 1e-08 0
5598 5679 5678 1e-08 0
5598 5599 5680 1e-08 0
5598 5680 5679 1e-08 0
5599 5600 5680 1e-08 0
5600 5681 5680 1e-08 0
5600 5601 5682 1e-08 0
5600 5682 5681 1e-08 0
5601 5602 5682 1e-08 0
5602 5683 5682 1e-08 0
5602 5603 5684 1e-08 0
5602 5684 5683 1e-08 0
5603 5604 5684 1e-08 0
5604 5685 5684 1e-08 0
5604 5605 5686 1e-08 0
5604 5686 5685 1e-08 0
5605 5606 5686 1e-08 0
5606 5687 5686 1e-08 0
5606 5607 5688 1e-08 0
5606 5688 5687 1e-08 0
5607 5608 5688 1e-08 0
5608 5689 5688 1e-08 0
5608 5609 5690 1e-08 0
5608 5690 5689 1e-08 0
5609 5610 5690 1e-08 0
5610 5691 5690 1e-08 0
5610 5611 5692 1e-08 0
5610 5692 5691 1e-08 0
5611 5612 5692 1e-08 0
5612 5693 5692 1e-08 0
5612 5613 5694 1e-08 0
5612 5694 5693 1e-08 0
5613 5614 5694 1e-08 0
5614 5695 5694 1e-08 0
5614 5615 5696 1e-08 0
5614 5696 5695 1e-08 0
5615 5616 5696 1e-08 0
5616 5697 5696 1e-08 0
5616 5617 5698 1e-08 0
5616 5698 5697 1e-08 0
5617 5618 5698 1e-08 0
5618 5699 5698 1e-08 0
5618 5619 5700 1e-08 0
5618 5700 5699 1e-08 0
5619 5620 5700 1e-08 0
5620 5701 5700 1e-08 0
5620 5621 5702 1e-08 0
5620 5702 5701 1e-08 0
5621 5622 5702 1e-08 0
5622 5703 5702 1e-08 0
5622 5623 5704 1e-08 0
5622 5704 5703 1e-08 0
5623 5624 5704 1e-08 0
5624 5705 5704 1e-08 0
5624 5625 5706 1e-08 0
5624 5706 5705 1e-08 0
5625 5626 5706 1e-08 0
5626 5707 5706 1e-08 0
5626 5627 5708 1e-08 0
5626 5708 5707 1e-08 0
5627 5628 5708 1e-08 0
5628 5709 5708 1e-08 0
5628 5629 5710 1e-08 0
5628 5710 5709 1e-08 0
5629 5630 5710 1e-08 0
5630 5711 5710 1e-08 0
5630 5631 5712 1e-08 0
5630 5712 5711 1e-08 0
5631 5632 5712 1e-08 0
5632 5713 5712 1e-08 0
5632 5633 5714 1e-08 0
5632 5714 5713 1e-08 0
5633 5634 5714 1e-08 0
5634 5715 5714 1e-08 0
5634 5635 5716 1e-08 0
5634 5716 5715 1e-08 0
5635 5636 5716 1e-08 0
5636 5717 5716 1e-08 0
5636 5637 5718 1e-08 0
5636 5718 5717 1e-08 0
5637 5638 5718 1e-08 0
5638 5719 5718 1e-08 0
5638 5639 5720 1e-08 0
5638 5720 5719 1e-08 0
5639 5640 5720 1e-08 0
5640 5721 5720 1e-08 0
5640 5641 5722 1e-08 0
5640 5722 5721 1e-08 0
5641 5642 5722 1e-08 0
5642 5723 5722 1e-08 0
5642 5643 5724 1e-08 0
5642 5724 5723 1e-08 0
5643 5644 5724 1e-08 0
5644 5725 5724 1e-08 0
5644 5645 5726 1e-08 0
5644 5726 5725 1e-08 0
5645 5646 5726 1e-08 0
5646 5727 5726 1e-08 0
5646 5647 5728 1e-08 0
5646 5728 5727 1e-08 0
5647 5648 5728 1e-08 0
5648 5729 5728 1e-08 0
5648 5649 5730 1e-08 0
5648 5730 5729 1e-08 0
5649 5650 5730 1e-08 0
5650 5731 5730 1e-08 0
5650 5651 5732 1e-08 0
5650 5732 5731 1e-08 0
5651 5652 5732 1e-08 0
5652 5733 5732 1e-08 0
5652 5653 5734 1e-08 0
5652 5734 5733 1e-08 0
5653 5654 5734 1e-08 0
5654 5735 5734 1e-08 0
5654 5655 5736 1e-08 0
5654 5736 5735 1e-08 0
5655 5656 5736 1e-08 0
5656 5737 5736 1e-08 0
5656 5657 5738 1e-08 0
5656 5738 5737 1e-08 0
5657 5658 5738 1e-08 0
5658 5739 5738 1e-08 0
5658 5659 5740 1e-08 0
5658 5740 5739 1e-08 0
5659 5660 5740 1e-08 0
5660 5741 5740 1e-08 0
5660 5661 5742 1e-08 0
5660 5742 5741 1e-08 0
5661 5662 5742 1e-08 0
5662 5743 5742 1e-08 0
5662 5663 5744 1e-08 0
5662 5744 5743 1e-08 0
5663 5664 5744 1e-08 0
5664 5745 5744 1e-08 0
5664 5665 5746 1e-08 0
5664 5746 5745 1e-08 0
5665 5666 5746 1e-08 0
5666 5747 5746 1e-08 0
5666 5667 5748 1e-08 0
5666 5748 5747 1e-08 0
5667 5668 5748 1e-08 0
5668 5749 5748 1e-08 0
5668 5669 5750 1e-08 0
5668 5750 5749 1e-08 0
5670 5671 5752 1e-08 0
5670 5752 5751 1e-08 0
5671 5672 5752 1e-08 0
5672 5753 5752 1e-08 0
5672 5673 5754 1e-08 0
5672 5754 5753 1e-08 0
5673 5674 5754 1e-08 0
5674 5755 5754 1e-08 0
5674 5675 5756 1e-08 0
5674 5756 5755 1e-08 0
5675 5676 5756 1e-08 0
5676 5757 5756 1e-08 0
5676 5677 5758 1e-08 0
5676 5758 5757 1e-08 0
5677 5678 5758 1e-08 0
5678 5759 5758 1e-08 0
5678 5679 5760 1e-08 0
5678 5760 5759 1e-08 0
5679 5680 5760 1e-08 0
5680 5761 5760 1e-08 0
5680 5681 5762 1e-08 0
5680 5762 5761 1e-08 0
5681 5682 5762 1e-08 0
5682 5763 5762 1e-08 0
5682 5683 5764 1e-08 0
5682 5764 5763 1e-08 0
5683 5684 5764 1e-08 0
5684 5765 5764 1e-08 0
5684 5685 5766 1e-08 0
5684 5766 5765 1e-08 0
5685 5686 5766 1e-08 0
5686 5767 5766 1e-08 0
5686 5687 5768 1e-08 0
5686 5768 5767 1e-08 0
5687 5688 5768 1e-08 0
5688 5769 5768 1e-08 0
5688 5689 5770 1e-08 0
5688 5770 5769 1e-08 0
5689 5690 5770 1e-08 0
5690 5771 5770 1e-08 0
5690 5691 5772 1e-08 0
5690 5772 5771 1e-08 0
5691 5692 5772 1e-08 0
5692 5773 5772 1e-08 0
5692 5693 5774 1e-08 0
5692 5774 5773 1e-08 0
5693 5694 5774 1e-08 0
5694 5775 5774 1e-08 0
5694 5695 5776 1e-08 0
5694 5776 5775 1e-08 0
5695 5696 5776 1e-08 0
5696 5777 5776 1e-08 0
5696 5697 5778 1e-08 0
5696 5778 5777 1e-08 0
5697 5698 5778 1e-08 0
5698 5779 5778 1e-08 0
5698 5699 5780 1e-08 0
5698 5780 5779 1e-08 0
5699 5700 5780 1e-08 0
5700 5781 5780 1e-08 0
5700 5701 5782 1e-08 0
5700 5782 5781 1e-08 0
5701 5702 5782 1e-08 0
5702 5783 5782 1e-08 0
5702 5703 5784 1e-08 0
5702 5784 5783 1e-08 0
5703 5704 5784 1e-08 0
5704 5785 5784 1e-08 0
5704 5705 5786 1e-08 0
5704 5786 5785 1e-08 0
5705 5706 5786 1e-08 0
5706 5787 5786 1e-08 0
5706 5707 5788 1e-08 0
5706 5788 5787 1e-08 0
5707 5708 5788 1e-08 0
5708 5789 5788 1e-08 0
5708 5709 5790 1e-08 0
5708 5790 5789 1e-08 0
5709 5710 5790 1e-08 0
5710 5791 5790 1e-08 0
5710 5711 5792 1e-08 0
5710 5792 5791 1e-08 0
5711 5712 5792 1e-08 0
5712 5793 5792 1e-08 0
5712 5713 5794 1e-08 0
5712 5794 5793 1e-08 0
5713 5714 5794 1e-08 0
5714 5795 5794 1e-08 0
5714 5715 5796 1e-08 0
5714 5796 5795 1e-08 0
5715 5716 5796 1e-08 0
5716 5797 5796 1e-08 0
5716 5717 5798 1e-08 0
5716 5798 5797 1e-08 0
5717 5718 5798 1e-08 0
5718 5799 5798 1e-08 0
5718 5719 5800 1e-08 0
5718 5800 5799 1e-08 0
5719 5720 5800 1e-08 0
5720 5801 5800 1e-08 0
5720 5721 5802 1e-08 0
5720 5802 5801 1e-08 0
5721 5722 5802 1e-08 0
5722 5803 5802 1e-08 0
5722 5723 5804 1e-08 0
5722 5804 5803 1e-08 0
5723 5724 5804 1e-08 0
5724 5805 5804 1e-08 0
5724 5725 5806 1e-08 0
5724 5806 5805 1e-08 0
5725 5726 5806 1e-08 0
5726 5807 5806 1e-08 0
5726 5727 5808 1e-08 0
5726 5808 5807 1e-08 0
5727 5728 5808 1e-08 0
5728 5809 5808 1e-08 0
5728 5729 5810 1e-08 0
5728 5810 5809 1e-08 0
5729 5730 5810 1e-08 0
5730 5811 5810 1e-08 0
5730 5731 5812 1e-08 0
5730 5812 5811 1e-08 0
5731 5732 5812 1e-08 0
5732 5813 5812 1e-08 0
5732 5733 5814 1e-08 0
5732 5814 5813 1e-08 0
5733 5734 5814 1e-08 0
5734 5815 5814 1e-08 0
5734 5735 5816 1e-08 0
5734 5816 5815 1e-08 0
5735 5736 5816 1e-08 0
5736 5817 5816 1e-08 0
5736 5737 5818 1e-08 0
5736 5818 5817 1e-08 0
5737 5738 5818 1e-08 0
5738 5819 5818 1e-08 0
5738 5739 5820 1e-08 0
5738 5820 5819 1e-08 0
5739 5740 5820 1e-08 0
5740 5821 5820 1e-08 0
5740 5741 5822 1e-08 0
5740 5822 5821 1e-08 0
5741 5742 5822 1e-08 0
5742 5823 5822 1e-08 0
5742 5743 5824 1e-08 0
5742 5824 5823 1e-08 0
5743 5744 5824 1e-08 0
5744 5825 5824 1e-08 0
5744 5745 5826 1e-08 0
5744 5826 5825 1e-08 0
5745 5746 5826 1e-08 0
5746 5827 5826 1e-08 0
5746 5747 5828 1e-08 0
5746 5828 5827 1e-08 0
5747 5748 5828 1e-08 0
5748 5829 5828 1e-08 0
5748 5749 5830 1e-08 0
5748 5830 5829 1e-08 0
5749 5750 5830 1e-08 0
5750 5831 5830 1e-08 0
5751 5752 5832 1e-08 0
5752 5833 5832 1e-08 0
5752 5753 5834 1e-08 0
5752 5834 5833 1e-08 0
5753 5754 5834 1e-08 0
5754 5835 5834 1e-08 0
5754 5755 5836 1e-08 0
5754 5836 5835 1e-08 0
5755 5756 5836 1e-08 0
5756 5837 5836 1e-08 0
5756 5757 5838 1e-08 0
5756 5838 5837 1e-08 0
5757 5758 5838 1e-08 0
5758 5839 5838 1e-08 0
5758 5759 5840 1e-08 0
5758 5840 5839 1e-08 0
5759 5760 5840 1e-08 0
5760 5841 5840 1e-08 0
5760 5761 5842 1e-08 0
5760 5842 5841 1e-08 0
5761 5762 5842 1e-08 0
5762 5843 5842 1e-08 0
5762 5763 5844 1e-08 0
5762 5844 5843 1e-08 0
5763 5764 5844 1e-08 0
5764 5845 5844 1e-08 0
5764 5765 5846 1e-08 0
5764 5846 5845 1e-08 0
5765 5766 5846 1e-08 0
5766 5847 5846 1e-08 0
5766 5767 5848 1e-08 0
5766 5848 5847 1e-08 0
5767 5768 5848 1e-08 0
5768 5849 5848 1e-08 0
5768 5769 5850 1e-08 0
5768 5850 5849 1e-08 0
5769 5770 5850 1e-08 0
5770 5851 5850 1e-08 0
5770 5771 5852 1e-08 0
5770 5852 5851 1e-08 0
5771 5772 5852 1e-08 0
5772 5853 5852 1e-08 0
5772 5773 5854 1e-08 0
5772 5854 5853 1e-08 0
5773 5774 5854 1e-08 0
5774 5855 5854 1e-08 0
5774 5775 5856 1e-08 0
5774 5856 5855 1e-08 0
5775 5776 5856 1e-08 0
5776 5857 5856 1e-08 0
5776 5777 5858 1e-08 0
5776 5858 5857 1e-08 0
5777 5778 5858 1e-08 0
5778 5859 5858 1e-08 0
5778 5779 5860 1e-08 0
5778 5860 5859 1e-08 0
5779 5780 5860 1e-08 0
5780 5861 5860 1e-08 0
5780 5781 5862 1e-08 0
5780 5862 5861 1e-08 0
5781 5782 5862 1e-08 0
5782 5863 5862 1e-08 0
5782 5783 5864 1e-08 0
5782 5864 5863 1e-08 0
5783 5784 5864 1e-08 0
5784 5865 5864 1e-08 0
5784 5785 5866 1e-08 0
5784 5866 5865 1e-08 0
5785 5786 5866 1e-08 0
5786 5867 5866 1e-08 0
5786 5787 5868 1e-08 0
5786 5868 5867 1e-08 0
5787 5788 5868 1e-08 0
5788 5869 5868 1e-08 0
5788 5789 5870 1e-08 0
5788 5870 5869 1e-08 0
5789 5790 5870 1e-08 0
5790 5871 5870 1e-08 0
5790 5791 5872 1e-08 0
5790 5872 5871 1e-08 0
5791 5792 5872 1e-08 0
5792 5873 5872 1e-08 0
5792 5793 5874 1e-08 0
5792 5874 5873 1e-08 0
5793 5794 5874 1e-08 0
5794 5875 5874 1e-08 0
5794 5795 5876 1e-08 0
5794 5876 5875 1e-08 0
5795 5796 5876 1e-08 0
5796 5877 5876 1e-08 0
5796 5797 5878 1e-08 0
5796 5878 5877 1e-08 0
5797 5798 5878 1e-08 0
5798 5879 5878 1e-08 0
5798 5799 5880 1e-08 0
5798 5880 5879 1e-08 0
5799 5800 5880 1e-08 0
5800 5881 5880 1e-08 0
5800 5801 5882 1e-08 0
5800 5882 5881 1e-08 0
5801 5802 5882 1e-08 0
5802 5883 5882 1e-08 0
5802 5803 5884 1e-08 0
5802 5884 5883 1e-08 0
5803 5804 5884 1e-08 0
5804 5885 5884 1e-08 0
5804 5805 5886 1e-08 0
5804 5886 5885 1e-08 0
5805 5806 5886 1e-08 0
5806 5887 5886 1e-08 0
5806 5807 5888 1e-08 0
5806 5888 5887 1e-08 0
5807 5808 5888 1e-08 0
5808 5889 5888 1e-08 0
5808 5809 5890 1e-08 0
5808 5890 5889 1e-08 0
5809 5810 5890 1e-08 0
5810 5891 5890 1e-08 0
5810 5811 5892 1e-08 0
5810 5892 5891 1e-08 0
5811 5812 5892 1e-08 0
5812 5893 5892 1e-08 0
5812 5813 5894 1e-08 0
5812 5894 5893 1e-08 0
5813 5814 5894 1e-08 0
5814 5895 5894 1e-08 0
5814 5815 5896 1e-08 0
5814 5896 5895 1e-08 0
5815 5816 5896 1e-08 0
5816 5897 5896 1e-08 0
5816 5817 5898 1e-08 0
5816 5898 5897 1e-08 0
5817 5818 5898 1e-08 0
5818 5899 5898 1e-08 0
5818 5819 5900 1e-08 0
5818 5900 5899 1e-08 0
5819 5820 5900 1e-08 0
5820 5901 5900 1e-08 0
5820 5821 5902 1e-08 0
5820 5902 5901 1e-08 0
5821 5822 5902 1e-08 0
5822 5903 5902 1e-08 0
5822 5823 5904 1e-08 0
5822 5904 5903 1e-08 0
5823 5824 5904 1e-08 0
5824 5905 5904 1e-08 0
5824 5825 5906 1e-08 0
5824 5906 5905 1e-08 0
5825 5826 5906 1e-08 0
5826 5907 5906 1e-08 0
5826 5827 5908 1e-08 0
5826 5908 5907 1e-08 0
5827 5828 5908 1e-08 0
5828 5909 5908 1e-08 0
5828 5829 5910 1e-08 0
5828 5910 5909 1e-08 0
5829 5830 5910 1e-08 0
5830 5911 5910 1e-08 0
5830 5831 5912 1e-08 0
5830 5912 5911 1e-08 0
5832 5833 5914 1e-08 0
5832 5914 5913 1e-08 0
5833 5834 5914 1e-08 0
5834 5915 5914 1e-08 0
5834 5835 5916 1e-08 0
5834 5916 5915 1e-08 0
5835 5836 5916 1e-08 0
5836 5917 5916 1e-08 0
5836 5837 5918 1e-08 0
5836 5918 5917 1e-08 0
5837 5838 5918 1e-08 0
5838 5919 5918 1e-08 0
5838 5839 5920 1e-08 0
5838 5920 5919 1e-08 0
5839 5840 5920 1e-08 0
5840 5921 5920 1e-08 0
5840 5841 5922 1e-08 0
5840 5922 5921 1e-08 0
5841 5842 5922 1e-08 0
5842 5923 5922 1e-08 0
5842 5843 5924 1e-08 0
5842 5924 5923 1e-08 0
5843 5844 5924 1e-08 0
5844 5925 5924 1e-08 0
5844 5845 5926 1e-08 0
5844 5926 5925 1e-08 0
5845 5846 5926 1e-08 0
5846 5927 5926 1e-08 0
5846 5847 5928 1e-08 0
5846 5928 5927 1e-08 0
5847 5848 5928 1e-08 0
5848 5929 5928 1e-08 0
5848 5849 5930 1e-08 0
5848 5930 5929 1e-08 0
5849 5850 5930 1e-08 0
5850 5931 5930 1e-08 0
5850 5851 5932 1e-08 0
5850 5932 5931 1e-08 0
5851 5852 5932 1e-08 0
5852 5933 5932 1e-08 0
5852 5853 5934 1e-08 0
5852 5934 5933 1e-08 0
5853 5854 5934 1e-08 0
5854 5935 5934 1e-08 0
5854 5855 5936 1e-08 0
5854 5936 5935 1e-08 0
5855 5856 5936 1e-08 0
5856 5937 5936 1e-08 0
5856 5857 5938 1e-08 0
5856 5938 5937 1e-08 0
5857 5858 5938 1e-08 0
5858 5939 5938 1e-08 0
5858 5859 5940 1e-08 0
5858 5940 5939 1e-08 0
5859 5860 5940 1e-08 0
5860 5941 5940 1e-08 0
5860 5861 5942 1e-08 0
5860 5942 5941 1e-08 0
5861 5862 5942 1e-08 0
5862 5943 5942 1e-08 0
5862 5863 5944 1e-08 0
5862 5944 5943 1e-08 0
5863 5864 5944 1e-08 0
5864 5945 5944 1e-08 0
5864 5865 5946 1e-08 0
5864 5946 5945 1e-08 0
5865 5866 5946 1e-08 0
5866 5947 5946 1e-08 0
5866 5867 5948 1e-08 0
5866 5948 5947 1e-08 0
5867 5868 5948 1e-08 0
5868 5949 5948 1e-08 0
5868 5869 5950 1e-08 0
5868 5950 5949 1e-08 0
5869 5870 5950 1e-08 0
5870 5951 5950 1e-08 0
5870 5871 5952 1e-08 0
5870 5952 5951 1e-08 0
5871 5872 5952 1e-08 0
5872 5953 5952 1e-08 0
5872 5873 5954 1e-08 0
5872 5954 5953 1e-08 0
5873 5874 5954 1e-08 0
5874 5955 5954 1e-08 0
5874 5875 5956 1e-08 0
5874 5956 5955 1e-08 0
5875 5876 5956 1e-08 0
5876 5957 5956 1e-08 0
5876 5877 5958 1e-08 0
5876 5958 5957 1e-08 0
5877 5878 5958 1e-08 0
5878 5959 5958 1e-08 0
5878 5879 5960 1e-08 0
5878 5960 5959 1e-08 0
5879 5880 5960 1e-08 0
5880 5961 5960 1e-08 0
5880 5881 5962 1e-08 0
5880 5962 5961 1e-08 0
5881 5882 5962 1e-08 0
5882 5963 5962 1e-08 0
5882 5883 5964 1e-08 0
5882 5964 5963 1e-08 0
5883 5884 5964 1e-08 0
5884 5965 5964 1e-08 0
5884 5885 5966 1e-08 0
5884 5966 5965 1e-08 0
5885 5886 5966 1e-08 0
5886 5967 5966 1e-08 0
5886 5887 5968 1e-08 0
5886 5968 5967 1e-08 0
5887 5888 5968 1e-08 0
5888 5969 5968 1e-08 0
5888 5889 5970 1e-08 0
5888 5970 5969 1e-08 0
5889 5890 5970 1e-08 0
5890 5971 5970 1e-08 0
5890 5891 5972 1e-08 0
5890 5972 5971 1e-08 0
5891 5892 5972 1e-08 0
5892 5973 5972 1e-08 0
5892 5893 5974 1e-08 0
5892 5974 5973 1e-08 0
5893 5894 5974 1e-08 0
5894 5975 5974 1e-08 0
5894 5895 5976 1e-08 0
5894 5976 5975 1e-08 0
5895 5896 5976 1e-08 0
5896 5977 5976 1e-08 0
5896 5897 5978 1e-08 0
5896 5978 5977 1e-08 0
5897 5898 5978 1e-08 0
5898 5979 5978 1e-08 0
5898 5899 5980 1e-08 0
5898 5980 5979 1e-08 0
5899 5900 5980 1e-08 0
5900 5981 5980 1e-08 0
5900 5901 5982 1e-08 0
5900 5982 5981 1e-08 0
5901 5902 5982 1e-08 0
5902 5983 5982 1e-08 0
5902 5903 5984 1e-08 0
5902 5984 5983 1e-08 0
5903 5904 5984 1e-08 0
5904 5985 5984 1e-08 0
5904 5905 5986 1e-08 0
5904 5986 5985 1e-08 0
5905 5906 5986 1e-08 0
5906 5987 5986 1e-08 0
5906 5907 5988 1e-08 0
5906 5988 5987 1e-08 0
5907 5908 5988 1e-08 0
5908 5989 5988 1e-08 0
5908 5909 5990 1e-08 0
5908 5990 5989 1e-08 0
5909 5910 5990 1e-08 0
5910 5991 5990 1e-08 0
5910 5911 5992 1e-08 0
5910 5992 5991 1e-08 0
5911 5912 5992 1e-08 0
5912 5993 5992 1e-08 0
5913 5914 5994 1e-08 0
5914 5995 5994 1e-08 0
5914 5915 5996 1e-08 0
5914 5996 5995 1e-08 0
5915 5916 5996 1e-08 0
5916 5997 5996 1e-08 0
5916 5917 5998 1e-08 0
5916 5998 5997 1e-08 0
5917 5918 5998 1e-08 0
5918 5999 5998 1e-08 0
5918 5919 6000 1e-08 0
5918 6000 5999 1e-08 0
5919 5920 6000 1e-08 0
5920 6001 6000 1e-08 0
5920 5921 6002 1e-08 0
5920 6002 6001 1e-08 0
5921 5922 6002 1e-08 0
5922 6003 6002 1e-08 0
5922 5923 6004 1e-08 0
5922 6004 6003 1e-08 0
5923 5924 6004 1e-08 0
5924 6005 6004 1e-08 0
5924 5925 6006 1e-08 0
5924 6006 6005 1e-08 0
5925 5926 6006 1e-08 0
5926 6007 6006 1e-08 0
5926 5927 6008 1e-08 0
5926 6008 6007 1e-08 0
5927 5928 6008 1e-08 0
5928 6009 6008 1e-08 0
5928 5929 6010 1e-08 0
5928 6010 6009 1e-08 0
5929 5930 6010 1e-08 0
5930 6011 6010 1e-08 0
5930 5931 6012 1e-08 0
5930 6012 6011 1e-08 0
5931 5932 6012 1e-08 0
5932 6013 6012 1e-08 0
5932 5933 6014 1e-08 0
5932 6014 6013 1e-08 0
5933 5934 6014 1e-08 0
5934 6015 6014 1e-08 0
5934 5935 6016 1e-08 0
5934 6016 6015 1e-08 0
5935 5936 6016 1e-08 0
5936 6017 6016 1e-08 0
5936 5937 6018 1e-08 0
5936 6018 6017 1e-08 0
5937 5938 6018 1e-08 0
5938 6019 6018 1e-08 0
5938 5939 6020 1e-08 0
5938 6020 6019 1e-08 0
5939 5940 6020 1e-08 0
5940 6021 6020 1e-08 0
5940 5941 6022 1e-08 0
5940 6022 6021 1e-08 0
5941 5942 6022 1e-08 0
5942 6023 6022 1e-08 0
5942 5943 6024 1e-08 0
5942 6024 6023 1e-08 0
5943 5944 6024 1e-08 0
5944 6025 6024 1e-08 0
5944 5945 6026 1e-08 0
5944 6026 6025 1e-08 0
5945 5946 6026 1e-08 0
5946 6027 6026 1e-08 0
5946 5947 6028 1e-08 0
5946 6028 6027 1e-08 0
5947 5948 6028 1e-08 0
5948 6029 6028 1e-08 0
5948 5949 6030 1e-08 0
5948 6030 6029 1e-08 0
5949 5950 6030 1e-08 0
5950 6031 6030 1e-08 0
5950 5951 6032 1e-08 0
5950 6032 6031 1e-08 0
5951 5952 6032 1e-08 0
5952 6033 6032 1e-08 0
5952 5953 6034 1e-08 0
5952 6034 6033 1e-08 0
5953 5954 6034 1e-08 0
5954 6035 6034 1e-08 0
5954 5955 6036 1e-08 0
5954 6036 6035 1e-08 0
5955 5956 6036 1e-08 0
5956 6037 6036 1e-08 0
5956 5957 6038 1e-08 0
5956 6038 6037 1e-08 0
5957 5958 6038 1e-08 0
5958 6039 6038 1e-08 0
5958 5959 6040 1e-08 0
5958 6040 6039 1e-08 0
5959 5960 6040 1e-08 0
5960 6041 6040 1e-08 0
5960 5961 6042 1e-08 0
5960 6042 6041 1e-08 0
5961 5962 6042 1e-08 0
5962 6043 6042 1e-08 0
5962 5963 6044 1e-08 0
5962 6044 6043 1e-08 0
5963 5964 6044 1e-08 0
5964 6045 6044 1e-08 0
5964 5965 6046 1e-08 0
5964 6046 6045 1e-08 0
5965 5966 6046 1e-08 0
5966 6047 6046 1e-08 0
5966 5967 6048 1e-08 0
5966 6048 6047 1e-08 0
5967 5968 6048 1e-08 0
5968 6049 6048 1e-08 0
5968 5969 6050 1e-08 0
5968 6050 6049 1e-08 0
5969 5970 6050 1e-08 0
5970 6051 6050 1e-08 0
5970 5971 6052 1e-08 0
5970 6052 6051 1e-08 0
5971 5972 6052 1e-08 0
5972 6053 6052 1e-08 0
5972 5973 6054 1e-08 0
5972 6054 6053 1e-08 0
5973 5974 6054 1e-08 0
5974 6055 6054 1e-08 0
5974 5975 6056 1e-08 0
5974 6056 6055 1e-08 0
5975 5976 6056 1e-08 0
5976 6057 6056 1e-08 0
5976 5977 6058 1e-08 0
5976 6058 6057 1e-08 0
5977 5978 6058 1e-08 0
5978 6059 6058 1e-08 0
5978 5979 6060 1e-08 0
5978 6060 6059 1e-08 0
5979 5980 6060 1e-08 0
5980 6061 6060 1e-08 0
5980 5981 6062 1e-08 0
5980 6062 6061 1e-08 0
5981 5982 6062 1e-08 0
5982 6063 6062 1e-08 0
5982 5983 6064 1e-08 0
5982 6064 6063 1e-08 0
5983 5984 6064 1e-08 0
5984 6065 6064 1e-08 0
5984 5985 6066 1e-08 0
5984 6066 6065 1e-08 0
5985 5986 6066 1e-08 0
5986 6067 6066 1e-08 0
5986 5987 6068 1e-08 0
5986 6068 6067 1e-08 0
5987 5988 6068 1e-08 0
5988 6069 6068 1e-08 0
5988 5989 6070 1e-08 0
5988 6070 6069 1e-08 0
5989 5990 6070 1e-08 0
5990 6071 6070 1e-08 0
5990 5991 6072 1e-08 0
5990 6072 6071 1e-08 0
5991 5992 6072 1e-08 0
5992 6073 6072 1e-08 0
5992 5993 6074 1e-08 0
5992 6074 6073 1e-08 0
5994 5995 6076 1e-08 0
5994 6076 6075 1e-08 0
5995 5996 6076 1e-08 0
5996 6077 6076 1e-08 0
5996 5997 6078 1e-08 0
5996 6078 6077 1e-08 0
5997 5998 6078 1e-08 0
5998 6079 6078 1e-08 0
5998 5999 6080 1e-08 0
5998 6080 6079 1e-08 0
5999 6000 6080 1e-08 0
6000 6081 6080 1e-08 0
6000 6001 6082 1e-08 0
6000 6082 6081 1e-08 0
6001 6002 6082 1e-08 0
6002 6083 6082 1e-08 0
6002 6003 6084 1e-08 0
6002 6084 6083 1e-08 0
6003 6004 6084 1e-08 0
6004 6085 6084 1e-08 0
6004 6005 6086 1e-08 0
6004 6086 6085 1e-08 0
6005 6006 6086 1e-08 0
6006 6087 6086 1e-08 0
6006 6007 6088 1e-08 0
6006 6088 6087 1e-08 0
6007 6008 6088 1e-08 0
6008 6089 6088 1e-08 0
6008 6009 6090 1e-08 0
6008 6090 6089 1e-08 0
6009 6010 6090 1e-08 0
6010 6091 6090 1e-08 0
6010 6011 6092 1e-08 0
6010 6092 6091 1e-08 0
6011 6012 6092 1e-08 0
6012 6093 6092 1e-08 0
6012 6013 6094 1e-08 0
6012 6094 6093 1e-08 0
6013 6014 6094 1e-08 0
6014 6095 6094 1e-08 0
6014 6015 6096 1e-08 0
6014 6096 6095 1e-08 0
6015 6016 6096 1e-08 0
6016 6097 6096 1e-08 0
6016 6017 6098 1e-08 0
6016 6098 6097 1e-08 0
6017 6018 6098 1e-08 0
6018 6099 6098 1e-08 0
6018 6019 6100 1e-08 0
6018 6100 6099 1e-08 0
6019 6020 6100 1e-08 0
6020 6101 6100 1e-08 0
6020 6021 6102 1e-08 0
6020 6102 6101 1e-08 0
6021 6022 6102 1e-08 0
6022 6103 6102 1e-08 0
6022 6023 6104 1e-08 0
6022 6104 6103 1e-08 0
6023 6024 6104 1e-08 0
6024 6105 6104 1e-08 0
6024 6025 6106 1e-08 0
6024 6106 6105 1e-08 0
6025 6026 6106 1e-08 0
6026 6107 6106 1e-08 0
6026 6027 6108 1e-08 0
6026 6108 6107 1e-08 0
6027 6028 6108 1e-08 0
6028 6109 6108 1e-08 0
6028 6029 6110 1e-08 0
6028 6110 6109 1e-08 0
6029 6030 6110 1e-08 0
6030 6111 6110 1e-08 0
6030 6031 6112 1e-08 0
6030 6112 6111 1e-08 0
6031 6032 6112 1e-08 0
6032 6113 6112 1e-08 0
6032 6033 6114 1e-08 0
6032 6114 6113 1e-08 0
6033 6034 6114 1e-08 0
6034 6115 6114 1e-08 0
6034 6035 6116 1e-08 0
6034 6116 6115 1e-08 0
6035 6036 6116 1e-08 0
6036 6117 6116 1e-08 0
6036 6037 6118 1e-08 0
6036 6118 6117 1e-08 0
6037 6038 6118 1e-08 0
6038 6119 6118 1e-08 0
6038 6039 6120 1e-08 0
6038 6120 6119 1e-08 0
6039 6040 6120 1e-08 0
6040 6121 6120 1e-08 0
6040 6041 6122 1e-08 0
6040 6122 6121 1e-08 0
6041 6042 6122 1e-08 0
6042 6123 6122 1e-08 0
6042 6043 6124 1e-08 0
6042 6124 6123 1e-08 0
6043 6044 6124 1e-08 0
6044 6125 6124 1e-08 0
6044 6045 6126 1e-08 0
6044 6126 6125 1e-08 0
6045 6046 6126 1e-08 0
6046 6127 6126 1e-08 0
6046 6047 6128 1e-08 0
6046 6128 6127 1e-08 0
6047 6048 6128 1e-08 0
6048 6129 6128 1e-08 0
6048 6049 6130 1e-08 0
6048 6130 6129 1e-08 0
6049 6050 6130 1e-08 0
6050 6131 6130 1e-08 0
6050 6051 6132 1e-08 0
6050 6132 6131 1e-08 0
6051 6052 6132 1e-08 0
6052 6133 6132 1e-08 0
6052 6053 6134 1e-08 0
6052 6134 6133 1e-08 0
6053 6054 6134 1e-08 0
6054 6135 6134 1e-08 0
6054 6055 6136 1e-08 0
6054 6136 6135 1e-08 0
6055 6056 6136 1e-08 0
6056 6137 6136 1e-08 0
6056 6057 6138 1e-08 0
6056 6138 6137 1e-08 0
6057 6058 6138 1e-08 0
6058 6139 6138 1e-08 0
6058 6059 6140 1e-08 0
6058 6140 6139 1e-08 0
6059 6060 6140 1e-08 0
6060 6141 6140 1e-08 0
6060 6061 6142 1e-08 0
6060 6142 6141 1e-08 0
6061 6062 6142 1e-08 0
6062 6143 6142 1e-08 0
6062 6063 6144 1e-08 0
6062 6144 6143 1e-08 0
6063 6064 6144 1e-08 0
6064 6145 6144 1e-08 0
6064 6065 6146 1e-08 0
6064 6146 6145 1e-08 0
6065 6066 6146 1e-08 0
6066 6147 6146 1e-08 0
6066 6067 6148 1e-08 0
6066 6148 6147 1e-08 0
6067 6068 6148 1e-08 0
6068 6149 6148 1e-08 0
6068 6069 6150 1e-08 0
6068 6150 6149 1e-08 0
6069 6070 6150 1e-08 0
6070 6151 6150 1e-08 0
6070 6071 6152 1e-08 0
6070 6152 6151 1e-08 0
6071 6072 6152 1e-08 0
6072 6153 6152 1e-08 0
6072 6073 6154 1e-08 0
6072 6154 6153 1e-08 0
6073 6074 6154 1e-08 0
6074 6155 6154 1e-08 0
6075 6076 6156 1e-08 0
6076 6157 6156 1e-08 0
6076 6077 6158 1e-08 0
6076 6158 6157 1e-08 0
6077 6078 6158 1e-08 0
6078 6159 6158 1e-08 0
6078 6079 6160 1e-08 0
6078 6160 6159 1e-08 0
6079 6080 6160 1e-08 0
6080 6161 6160 1e-08 0
6080 6081 6162 1e-08 0
6080 6162 6161 1e-08 0
6081 6082 6162 1e-08 0
6082 6163 6162 1e-08 0
6082 6083 6164 1e-08 0
6082 6164 6163 1e-08 0
6083 6084 6164 1e-08 0
6084 6165 6164 1e-08 0
6084 6085 6166 1e-08 0
6084 6166 6165 1e-08 0
6085 6086 6166 1e-08 0
6086 6167 6166 1e-08 0
6086 6087 6168 1e-08 0
6086 6168 6167 1e-08 0
6087 6088 6168 1e-08 0
6088 6169 6168 1e-08 0
6088 6089 6170 1e-08 0
6088 6170 6169 1e-08 0
6089 6090 6170 1e-08 0
6090 6171 6170 1e-08 0
6090 6091 6172 1e-08 0
6090 6172 6171 1e-08 0
6091 6092 6172 1e-08 0
6092 6173 6172 1e-08 0
6092 6093 6174 1e-08 0
6092 6174 6173 1e-08 0
6093 6094 6174 1e-08 0
6094 6175 6174 1e-08 0
6094 6095 6176 1e-08 0
6094 6176 6175 1e-08 0
6095 6096 6176 1e-08 0
6096 6177 6176 1e-08 0
6096 6097 6178 1e-08 0
6096 6178 6177 1e-08 0
6097 6098 6178 1e-08 0
6098 6179 6178 1e-08 0
6098 6099 6180 1e-08 0
6098 6180 6179 1e-08 0
6099 6100 6180 1e-08 0
6100 6181 6180 1e-08 0
6100 6101 6182 1e-08 0
6100 6182 6181 1e-08 0
6101 6102 6182 1e-08 0
6102 6183 6182 1e-08 0
6102 6103 6184 1e-08 0
6102 6184 6183 1e-08 0
6103 6104 6184 1e-08 0
6104 6185 6184 1e-08 0
6104 6105 6186 1e-08 0
6104 6186 6185 1e-08 0
6105 6106 6186 1e-08 0
6106 6187 6186 1e-08 0
6106 6107 6188 1e-08 0
6106 6188 6187 1e-08 0
6107 6108 6188 1e-08 0
6108 6189 6188 1e-08 0
6108 6109 6190 1e-08 0
6108 6190 6189 1e-08 0
6109 6110 6190 1e-08 0
6110 6191 6190 1e-08 0
6110 6111 6192 1e-08 0
6110 6192 6191 1e-08 0
6111 6112 6192 1e-08 0
6112 6193 6192 1e-08 0
6112 6113 6194 1e-08 0
6112 6194 6193 1e-08 0
6113 6114 6194 1e-08 0
6114 6195 6194 1e-08 0
6114 6115 6196 1e-08 0
6114 6196 6195 1e-08 0
6115 6116 6196 1e-08 0
6116 6197 6196 1e-08 0
6116 6117 6198 1e-08 0
6116 6198 6197 1e-08 0
6117 6118 6198 1e-08 0
6118 6199 6198 1e-08 0
6118 6119 6200 1e-08 0
6118 6200 6199 1e-08 0
6119 6120 6200 1e-08 0
6120 6201 6200 1e-08 0
6120 6121 6202 1e-08 0
6120 6202 6201 1e-08 0
6121 6122 6202 1e-08 0
6122 6203 6202 1e-08 0
6122 6123 6204 1e-08 0
6122 6204 6203 1e-08 0
6123 6124 6204 1e-08 0
6124 6205 6204 1e-08 0
6124 6125 6206 1e-08 0
6124 6206 6205 1e-08 0
6125 6126 6206 1e-08 0
6126 6207 6206 1e-08 0
6126 6127 6208 1e-08 0
6126 6208 6207 1e-08 0
6127 6128 6208 1e-08 0
6128 6209 6208 1e-08 0
6128 6129 6210 1e-08 0
6128 6210 6209 1e-08 0
6129 6130 6210 1e-08 0
6130 6211 6210 1e-08 0
6130 6131 6212 1e-08 0
6130 6212 6211 1e-08 0
6131 6132 6212 1e-08 0
6132 6213 6212 1e-08 0
6132 6133 6214 1e-08 0
6132 6214 6213 1e-08 0
6133 6134 6214 1e-08 0
6134 6215 6214 1e-08 0
6134 6135 6216 1e-08 0
6134 6216 6215 1e-08 0
6135 6136 6216 1e-08 0
6136 6217 6216 1e-08 0
6136 6137 6218 1e-08 0
6136 6218 6217 1e-08 0
6137 6138 6218 1e-08 0
6138 6219 6218 1e-08 0
6138 6139 6220 1e-08 0
6138 6220 6219 1e-08 0
6139 6140 6220 1e-08 0
6140 6221 6220 1e-08 0
6140 6141 6222 1e-08 0
6140 6222 6221 1e-08 0
6141 6142 6222 1e-08 0
6142 6223 6222 1e-08 0
6142 6143 6224 1e-08 0
6142 6224 6223 1e-08 0
6143 6144 6224 1e-08 0
6144 6225 6224 1e-08 0
6144 6145 6226 1e-08 0
6144 6226 6225 1e-08 0
6145 6146 6226 1e-08 0
6146 6227 6226 1e-08 0
6146 6147 6228 1e-08 0
6146 6228 6227 1e-08 0
6147 6148 6228 1e-08 0
6148 6229 6228 1e-08 0
6148 6149 6230 1e-08 0
6148 6230 6229 1e-08 0
6149 6150 6230 1e-08 0
6150 6231 6230 1e-08 0
6150 6151 6232 1e-08 0
6150 6232 6231 1e-08 0
6151 6152 6232 1e-08 0
6152 6233 6232 1e-08 0
6152 6153 6234 1e-08 0
6152 6234 6233 1e-08 0
6153 6154 6234 1e-08 0
6154 6235 6234 1e-08 0
6154 6155 6236 1e-08 0
6154 6236 6235 1e-08 0
6156 6157 6238 1e-08 0
6156 6238 6237 1e-08 0
6157 6158 6238 1e-08 0
6158 6239 6238 1e-08 0
6158 6159 6240 1e-08 0
6158 6240 6239 1e-08 0
6159 6160 6240 1e-08 0
6160 6241 6240 1e-08 0
6160 6161 6242 1e-08 0
6160 6242 6241 1e-08 0
6161 6162 6242 1e-08 0
6162 6243 6242 1e-08 0
6162 6163 6244 1e-08 0
6162 6244 6243 1e-08 0
6163 6164 6244 1e-08 0
6164 6245 6244 1e-08 0
6164 6165 6246 1e-08 0
6164 6246 6245 1e-08 0
6165 6166 6246 1e-08 0
6166 6247 6246 1e-08 0
6166 6167 6248 1e-08 0
6166 6248 6247 1e-08 0
6167 6168 6248 1e-08 0
6168 6249 6248 1e-08 0
6168 6169 6250 1e-08 0
6168 6250 6249 1e-08 0
6169 6170 6250 1e-08 0
6170 6251 6250 1e-08 0
6170 6171 6252 1e-08 0
6170 6252 6251 1e-08 0
6171 6172 6252 1e-08 0
6172 6253 6252 1e-08 0
6172 6173 6254 1e-08 0
6172 6254 6253 1e-08 0
6173 6174 6254 1e-08 0
6174 6255 6254 1e-08 0
6174 6175 6256 1e-08 0
6174 6256 6255 1e-08 0
6175 6176 6256 1e-08 0
6176 6257 6256 1e-08 0
6176 6177 6258 1e-08 0
6176 6258 6257 1e-08 0
6177 6178 6258 1e-08 0
6178 6259 6258 1e-08 0
6178 6179 6260 1e-08 0
6178 6260 6259 1e-08 0
6179 6180 6260 1e-08 0
6180 6261 6260 1e-08 0
6180 6181 6262 1e-08 0
6180 6262 6261 1e-08 0
6181 6182 6262 1e-08 0
6182 6263 6262 1e-08 0
6182 6183 6264 1e-08 0
6182 6264 6263 1e-08 0
6183 6184 6264 1e-08 0
6184 6265 6264 1e-08 0
6184 6185 6266 1e-08 0
6184 6266 6265 1e-08 0
6185 6186 6266 1e-08 0
6186 6267 6266 1e-08 0
6186 6187 6268 1e-08 0
6186 6268 6267 1e-08 0
6187 6188 6268 1e-08 0
6188 6269 6268 1e-08 0
6188 6189 6270 1e-08 0
6188 6270 6269 1e-08 0
6189 6190 6270 1e-08 0
6190 6271 6270 1e-08 0
6190 6191 6272 1e-08 0
6190 6272 6271 1e-08 0
6191 6192 6272 1e-08 0
6192 6273 6272 1e-08 0
6192 6193 6274 1e-08 0
6192 6274 6273 1e-08 0
6193 6194 6274 1e-08 0
6194 6275 6274 1e-08 0
6194 6195 6276 1e-08 0
6194 6276 6275 1e-08 0
6195 6196 6276 1e-08 0
6196 6277 6276 1e-08 0
6196 6197 6278 1e-08 0
6196 6278 6277 1e-08 0
6197 6198 6278 1e-08 0
6198 6279 6278 1e-08 0
6198 6199 6280 1e-08 0
6198 6280 6279 1e-08 0
6199 6200 6280 1e-08 0
6200 6281 6280 1e-08 0
6200 6201 6282 1e-08 0
6200 6282 6281 1e-08 0
6201 6202 6282 1e-08 0
6202 6283 6282 1e-08 0
6202 6203 6284 1e-08 0
6202 6284 6283 1e-08 0
6203 6204 6284 1e-08 0
6204 6285 6284 1e-08 0
6204 6205 6286 1e-08 0
6204 6286 6285 1e-08 0
6205 6206 6286 1e-08 0
6206 6287 6286 1e-08 0
6206 6207 6288 1e-08 0
6206 6288 6287 1e-08 0
6207 6208 6288 1e-08 0
6208 6289 6288 1e-08 0
6208 6209 6290 1e-08 0
6208 6290 6289 1e-08 0
6209 6210 6290 1e-08 0
6210 6291 6290 1e-08 0
6210 6211 6292 1e-08 0
6210 6292 6291 1e-08 0
6211 6212 6292 1e-08 0
6212 6293 6292 1e-08 0
6212 6213 6294 1e-08 0
6212 6294 6293 1e-08 0
6213 6214 6294 1e-08 0
6214 6295 6294 1e-08 0
6214 6215 6296 1e-08 0
6214 6296 6295 1e-08 0
6215 6216 6296 1e-08 0
6216 6297 6296 1e-08 0
6216 6217 6298 1e-08 0
6216 6298 6297 1e-08 0
6217 6218 6298 1e-08 0
6218 6299 6298 1e-08 0
6218 6219 6300 1e-08 0
6218 6300 6299 1e-08 0
6219 6220 6300 1e-08 0
6220 6301 6300 1e-08 0
6220 6221 6302 1e-08 0
6220 6302 6301 1e-08 0
6221 6222 6302 1e-08 0
6222 6303 6302 1e-08 0
6222 6223 6304 1e-08 0
6222 6304 6303 1e-08 0
6223 6224 6304 1e-08 0
6224 6305 6304 1e-08 0
6224 6225 6306 1e-08 0
6224 6306 6305 1e-08 0
6225 6226 6306 1e-08 0
6226 6307 6306 1e-08 0
6226 6227 6308 1e-08 0
6226 6308 6307 1e-08 0
6227 6228 6308 1e-08 0
6228 6309 6308 1e-08 0
6228 6229 6310 1e-08 0
6228 6310 6309 1e-08 0
6229 6230 6310 1e-08 0
6230 6311 6310 1e-08 0
6230 6231 6312 1e-08 0
6230 6312 6311 1e-08 0
6231 6232 6312 1e-08 0
6232 6313 6312 1e-08 0
6232 6233 6314 1e-08 0
6232 6314 6313 1e-08 0
6233 6234 6314 1e-08 0
6234 6315 6314 1e-08 0
6234 6235 6316 1e-08 0
6234 6316 6315 1e-08 0
6235 6236 6316 1e-08 0
6236 6317 6316 1e-08 0
6237 6238 6318 1e-08 0
6238 6319 6318 1e-08 0
6238 6239 6320 1e-08 0
6238 6320 6319 1e-08 0
6239 6240 6320 1e-08 0
6240 6321 6320 1e-08 0
6240 6241 6322 1e-08 0
6240 6322 6321 1e-08 0
6241 6242 6322 1e-08 0
6242 6323 6322 1e-08 0
6242 6243 6324 1e-08 0
6242 6324 6323 1e-08 0
6243 6244 6324 1e-08 0
6244 6325 6324 1e-08 0
6244 6245 6326 1e-08 0
6244 6326 6325 1e-08 0
6245 6246 6326 1e-08 0
6246 6327 6326 1e-08 0
6246 6247 6328 1e-08 0
6246 6328 6327 1e-08 0
6247 6248 6328 1e-08 0
6248 6329 6328 1e-08 0
6248 6249 6330 1e-08 0
6248 6330 6329 1e-08 0
6249 6250 6330 1e-08 0
6250 6331 6330 1e-08 0
6250 6251 6332 1e-08 0
6250 6332 6331 1e-08 0
6251 6252 6332 1e-08 0
6252 6333 6332 1e-08 0
6252 6253 6334 1e-08 0
6252 6334 6333 1e-08 0
6253 6254 6334 1e-08 0
6254 6335 6334 1e-08 0
6254 6255 6336 1e-08 0
6254 6336 6335 1e-08 0
6255 6256 6336 1e-08 0
6256 6337 6336 1e-08 0
6256 6257 6338 1e-08 0
6256 6338 6337 1e-08 0
6257 6258 6338 1e-08 0
6258 6339 6338 1e-08 0
6258 6259 6340 1e-08 0
6258 6340 6339 1e-08 0
6259 6260 6340 1e-08 0
6260 6341 6340 1e-08 0
6260 6261 6342 1e-08 0
6260 6342 6341 1e-08 0
6261 6262 6342 1e-08 0
6262 6343 6342 1e-08 0
6262 6263 6344 1e-08 0
6262 6344 6343 1e-08 0
6263 6264 6344 1e-08 0
6264 6345 6344 1e-08 0
6264 6265 6346 1e-08 0
6264 6346 6345 1e-08 0
6265 6266 6346 1e-08 0
6266 6347 6346 1e-08 0
6266 6267 6348 1e-08 0
6266 6348 6347 1e-08 0
6267 6268 6348 1e-08 0
6268 6349 6348 1e-08 0
6268 6269 6350 1e-08 0
6268 6350 6349 1e-08 0
6269 6270 6350 1e-08 0
6270 6351 6350 1e-08 0
6270 6271 6352 1e-08 0
6270 6352 6351 1e-08 0
6271 6272 6352 1e-08 0
6272 6353 6352 1e-08 0
6272 6273 6354 1e-08 0
6272 6354 6353 1e-08 0
6273 6274 6354 1e-08 0
6274 6355 6354 1e-08 0
6274 6275 6356 1e-08 0
6274 6356 6355 1e-08 0
6275 6276 6356 1e-08 0
6276 6357 6356 1e-08 0
6276 6277 6358 1e-08 0
6276 6358 6357 1e-08 0
6277 6278 6358 1e-08 0
6278 6359 6358 1e-08 0
6278 6279 6360 1e-08 0
6278 6360 6359 1e-08 0
6279 6280 6360 1e-08 0
6280 6361 6360 1e-08 0
6280 6281 6362 1e-08 0
6280 6362 6361 1e-08 0
6281 6282 6362 1e-08 0
6282 6363 6362 1e-08 0
6282 6283 6364 1e-08 0
6282 6364 6363 1e-08 0
6283 6284 6364 1e-08 0
6284 6365 6364 1e-08 0
6284 6285 6366 1e-08 0
6284 6366 6365 1e-08 0
6285 6286 6366 1e-08 0
6286 6367 6366 1e-08 0
6286 6287 6368 1e-08 0
6286 6368 6367 1e-08 0
6287 6288 6368 1e-08 0
6288 6369 6368 1e-08 0
6288 6289 6370 1e-08 0
6288 6370 6369 1e-08 0
6289 6290 6370 1e-08 0
6290 6371 6370 1e-08 0
6290 6291 6372 1e-08 0
6290 6372 6371 1e-08 0
6291 6292 6372 1e-08 0
6292 6373 6372 1e-08 0
6292 6293 6374 1e-08 0
6292 6374 6373 1e-08 0
6293 6294 6374 1e-08 0
6294 6375 6374 1e-08 0
6294 6295 6376 1e-08 0
6294 6376 6375 1e-08 0
6295 6296 6376 1e-08 0
6296 6377 6376 1e-08 0
6296 6297 6378 1e-08 0
6296 6378 6377 1e-08 0
6297 6298 6378 1e-08 0
6298 6379 6378 1e-08 0
6298 6299 6380 1e-08 0
6298 6380 6379 1e-08 0
6299 6300 6380 1e-08 0
6300 6381 6380 1e-08 0
6300 6301 6382 1e-08 0
6300 6382 6381 1e-08 0
6301 6302 6382 1e-08 0
6302 6383 6382 1e-08 0
6302 6303 6384 1e-08 0
6302 6384 6383 1e-08 0
6303 6304 6384 1e-08 0
6304 6385 6384 1e-08 0
6304 6305 6386 1e-08 0
6304 6386 6385 1e-08 0
6305 6306 6386 1e-08 0
6306 6387 6386 1e-08 0
6306 6307 6388 1e-08 0
6306 6388 6387 1e-08 0
6307 6308 6388 1e-08 0
6308 6389 6388 1e-08 0
6308 6309 6390 1e-08 0
6308 6390 6389 1e-08 0
6309 6310 6390 1e-08 0
6310 6391 6390 1e-08 0
6310 6311 6392 1e-08 0
6310 6392 6391 1e-08 0
6311 6312 6392 1e-08 0
6312 6393 6392 1e-08 0
6312 6313 6394 1e-08 0
6312 6394 6393 1e-08 0
6313 6314 6394 1e-08 0
6314 6395 6394 1e-08 0
6314 6315 6396 1e-08 0
6314 6396 6395 1e-08 0
6315 6316 6396 1e-08 0
6316 6397 6396 1e-08 0
6316 6317 6398 1e-08 0
6316 6398 6397 1e-08 0
6318 6319 6400 1e-08 0
6318 6400 6399 1e-08 0
6319 6320 6400 1e-08 0
6320 6401 6400 1e-08 0
6320 6321 6402 1e-08 0
6320 6402 6401 1e-08 0
6321 6322 6402 1e-08 0
6322 6403 6402 1e-08 0
6322 6323 6404 1e-08 0
6322 6404 6403 1e-08 0
6323 6324 6404 1e-08 0
6324 6405 6404 1e-08 0
6324 6325 6406 1e-08 0
6324 6406 6405 1e-08 0
6325 6326 6406 1e-08 0
6326 6407 6406 1e-08 0
6326 6327 6408 1e-08 0
6326 6408 6407 1e-08 0
6327 6328 6408 1e-08 0
6328 6409 6408 1e-08 0
6328 6329 6410 1e-08 0
6328 6410 6409 1e-08 0
6329 6330 6410 1e-08 0
6330 6411 6410 1e-08 0
6330 6331 6412 1e-08 0
6330 6412 6411 1e-08 0
6331 6332 6412 1e-08 0
6332 6413 6412 1e-08 0
6332 6333 6414 1e-08 0
6332 6414 6413 1e-08 0
6333 6334 6414 1e-08 0
6334 6415 6414 1e-08 0
6334 6335 6416 1e-08 0
6334 6416 6415 1e-08 0
6335 6336 6416 1e-08 0
6336 6417 6416 1e-08 0
6336 6337 6418 1e-08 0
6336 6418 6417 1e-08 0
6337 6338 6418 1e-08 0
6338 6419 6418 1e-08 0
6338 6339 6420 1e-08 0
6338 6420 6419 1e-08 0
6339 6340 6420 1e-08 0
6340 6421 6420 1e-08 0
6340 6341 6422 1e-08 0
6340 6422 6421 1e-08 0
6341 6342 6422 1e-08 0
6342 6423 6422 1e-08 0
6342 6343 6424 1e-08 0
6342 6424 6423 1e-08 0
6343 6344 6424 1e-08 0
6344 6425 6424 1e-08 0
6344 6345 6426 1e-08 0
6344 6426 6425 1e-08 0
6345 6346 6426 1e-08 0
6346 6427 6426 1e-08 0
6346 6347 6428 1e-08 0
6346 6428 6427 1e-08 0
6347 6348 6428 1e-08 0
6348 6429 6428 1e-08 0
6348 6349 6430 1e-08 0
6348 6430 6429 1e-08 0
6349 6350 6430 1e-08 0
6350 6431 6430 1e-08 0
6350 6351 6432 1e-08 0
6350 6432 6431 1e-08 0
6351 6352 6432 1e-08 0
6352 6433 6432 1e-08 0
6352 6353 6434 1e-08 0
6352 6434 6433 1e-08 0
6353 6354 6434 1e-08 0
6354 6435 6434 1e-08 0
6354 6355 6436 1e-08 0
6354 6436 6435 1e-08 0
6355 6356 6436 1e-08 0
6356 6437 6436 1e-08 0
6356 6357 6438 1e-08 0
6356 6438 6437 1e-08 0
6357 6358 6438 1e-08 0
6358 6439 6438 1e-08 0
6358 6359 6440 1e-08 0
6358 6440 6439 1e-08 0
6359 6360 6440 1e-08 0
6360 6441 6440 1e-08 0
6360 6361 6442 1e-08 0
6360 6442 6441 1e-08 0
6361 6362 6442 1e-08 0
6362 6443 6442 1e-08 0
6362 6363 6444 1e-08 0
6362 6444 6443 1e-08 0
6363 6364 6444 1e-08 0
6364 6445 6444 1e-08 0
6364 6365 6446 1e-08 0
6364 6446 6445 1e-08 0
6365 6366 6446 1e-08 0
6366 6447 6446 1e-08 0
6366 6367 6448 1e-08 0
6366 6448 6447 1e-08 0
6367 6368 6448 1e-08 0
6368 6449 6448 1e-08 0
6368 6369 6450 1e-08 0
6368 6450 6449 1e-08 0
6369 6370 6450 1e-08 0
6370 6451 6450 1e-08 0
6370 6371 6452 1e-08 0
6370 6452 6451 1e-08 0
6371 6372 6452 1e-08 0
6372 6453 6452 1e-08 0
6372 6373 6454 1e-08 0
6372 6454 6453 1e-08 0
6373 6374 6454 1e-08 0
6374 6455 6454 1e-08 0
6374 6375 6456 1e-08 0
6374 6456 6455 1e-08 0
6375 6376 6456 1e-08 0
6376 6457 6456 1e-08 0
6376 6377 6458 1e-08 0
6376 6458 6457 1e-08 0
6377 6378 6458 1e-08 0
6378 6459 6458 1e-08 0
6378 6379 6460 1e-08 0
6378 6460 6459 1e-08 0
6379 6380 6460 1e-08 0
6380 6461 6460 1e-08 0
6380 6381 6462 1e-08 0
6380 6462 6461 1e-08 0
6381 6382 6462 1e-08 0
6382 6463 6462 1e-08 0
6382 6383 6464 1e-08 0
6382 6464 6463 1e-08 0
6383 6384 6464 1e-08 0
6384 6465 6464 1e-08 0
6384 6385 6466 1e-08 0
6384 6466 6465 1e-08 0
6385 6386 6466 1e-08 0
6386 6467 6466 1e-08 0
6386 6387 6468 1e-08 0
6386 6468 6467 1e-08 0
6387 6388 6468 1e-08 0
6388 6469 6468 1e-08 0
6388 6389 6470 1e-08 0
6388 6470 6469 1e-08 0
6389 6390 6470 1e-08 0
6390 6471 6470 1e-08 0
6390 6391 6472 1e-08 0
6390 6472 6471 1e-08 0
6391 6392 6472 1e-08 0
6392 6473 6472 1e-08 0
6392 6393 6474 1e-08 0
6392 6474 6473 1e-08 0
6393 6394 6474 1e-08 0
6394 6475 6474 1e-08 0
6394 6395 6476 1e-08 0
6394 6476 6475 1e-08 0
6395 6396 6476 1e-08 0
6396 6477 6476 1e-08 0
6396 6397 6478 1e-08 0
6396 6478 6477 1e-08 0
6397 6398 6478 1e-08 0
6398 6479 6478 1e-08 0
6399 6400 6480 1e-08 0
6400 6481 6480 1e-08 0
6400 6401 6482 1e-08 0
6400 6482 6481 1e-08 0
6401 6402 6482 1e-08 0
6402 6483 6482 1e-08 0
6402 6403 6484 1e-08 0
6402 6484 6483 1e-08 0
6403 6404 6484 1e-08 0
6404 6485 6484 1e-08 0
6404 6405 6486 1e-08 0
6404 6486 6485 1e-08 0
6405 6406 6486 1e-08 0
6406 6487 6486 1e-08 0
6406 6407 6488 1e-08 0
6406 6488 6487 1e-08 0
6407 6408 6488 1e-08 0
6408 6489 6488 1e-08 0
6408 6409 6490 1e-08 0
6408 6490 6489 1e-08 0
6409 6410 6490 1e-08 0
6410 6491 6490 1e-08 0
6410 6411 6492 1e-08 0
6410 6492 6491 1e-08 0
6411 6412 6492 1e-08 0
6412 6493 6492 1e-08 0
6412 6413 6494 1e-08 0
6412 6494 6493 1e-08 0
6413 6414 6494 1e-08 0
6414 6495 6494 1e-08 0
6414 6415 6496 1e-08 0
6414 6496 6495 1e-08 0
6415 6416 6496 1e-08 0
6416 6497 6496 1e-08 0
6416 6417 6498 1e-08 0
6416 6498 6497 1e-08 0
6417 6418 6498 1e-08 0
6418 6499 6498 1e-08 0
6418 6419 6500 1e-08 0
6418 6500 6499 1e-08 0
6419 6420 6500 1e-08 0
6420 6501 6500 1e-08 0
6420 6421 6502 1e-08 0
6420 6502 6501 1e-08 0
6421 6422 6502 1e-08 0
6422 6503 6502 1e-08 0
6422 6423 6504 1e-08 0
6422 6504 6503 1e-08 0
6423 6424 6504 1e-08 0
6424 6505 6504 1e-08 0
6424 6425 6506 1e-08 0
6424 6506 6505 1e-08 0
6425 6426 6506 1e-08 0
6426 6507 6506 1e-08 0
6426 6427 6508 1e-08 0
6426 6508 6507 1e-08 0
6427 6428 6508 1e-08 0
6428 6509 6508 1e-08 0
6428 6429 6510 1e-08 0
6428 6510 6509 1e-08 0
6429 6430 6510 1e-08 0
6430 6511 6510 1e-08 0
6430 6431 6512 1e-08 0
6430 6512 6511 1e-08 0
6431 6432 6512 1e-08 0
6432 6513 6512 1e-08 0
6432 6433 6514 1e-08 0
6432 6514 6513 1e-08 0
6433 6434 6514 1e-08 0
6434 6515 6514 1e-08 0
6434 6435 6516 1e-08 0
6434 6516 6515 1e-08 0
6435 6436 6516 1e-08 0
6436 6517 6516 1e-08 0
6436 6437 6518 1e-08 0
6436 6518 6517 1e-08 0
6437 6438 6518 1e-08 0
6438 6519 6518 1e-08 0
6438 6439 6520 1e-08 0
6438 6520 6519 1e-08 0
6439 6440 6520 1e-08 0
6440 6521 6520 1e-08 0
6440 6441 6522 1e-08 0
6440 6522 6521 1e-08 0
6441 6442 6522 1e-08 0
6442 6523 6522 1e-08 0
6442 6443 6524 1e-08 0
6442 6524 6523 1e-08 0
6443 6444 6524 1e-08 0
6444 6525 6524 1e-08 0
6444 6445 6526 1e-08 0
6444 6526 6525 1e-08 0
6445 6446 6526 1e-08 0
6446 6527 6526 1e-08 0
6446 6447 6528 1e-08 0
6446 6528 6527 1e-08 0
6447 6448 6528 1e-08 0
6448 6529 6528 1e-08 0
6448 6449 6530 1e-08 0
6448 6530 6529 1e-08 0
6449 6450 6530 1e-08 0
6450 6531 6530 1e-08 0
6450 6451 6532 1e-08 0
6450 6532 6531 1e-08 0
6451 6452 6532 1e-08 0
6452 6533 6532 1e-08 0
6452 6453 6534 1e-08 0
6452 6534 6533 1e-08 0
6453 6454 6534 1e-08 0
6454 6535 6534 1e-08 0
6454 6455 6536 1e-08 0
6454 6536 6535 1e-08 0
6455 6456 6536 1e-08 0
6456 6537 6536 1e-08 0
6456 6457 6538 1e-08 0
6456 6538 6537 1e-08 0
6457 6458 6538 1e-08 0
6458 6539 6538 1e-08 0
6458 6459 6540 1e-08 0
6458 6540 6539 1e-08 0
6459 6460 6540 1e-08 0
6460 6541 6540 1e-08 0
6460 6461 6542 1e-08 0
6460 6542 6541 1e-08 0
6461 6462 6542 1e-08 0
6462 6543 6542 1e-08 0
6462 6463 6544 1e-08 0
6462 6544 6543 1e-08 0
6463 6464 6544 1e-08 0
6464 6545 6544 1e-08 0
6464 6465 6546 1e-08 0
6464 6546 6545 1e-08 0
6465 6466 6546 1e-08 0
6466 6547 6546 1e-08 0
6466 6467 6548 1e-08 0
6466 6548 6547 1e-08 0
6467 6468 6548 1e-08 0
6468 6549 6548 1e-08 0
6468 6469 6550 1e-08 0
6468 6550 6549 1e-08 0
6469 6470 6550 1e-08 0
6470 6551 6550 1e-08 0
6470 6471 6552 1e-08 0
6470 6552 6551 1e-08 0
6471 6472 6552 1e-08 0
6472 6553 6552 1e-08 0
6472 6473 6554 1e-08 0
6472 6554 6553 1e-08 0
6473 6474 6554 1e-08 0
6474 6555 6554 1e-08 0
6474 6475 6556 1e-08 0
6474 6556 6555 1e-08 0
6475 6476 6556 1e-08 0
6476 6557 6556 1e-08 0
6476 6477 6558 1e-08 0
6476 6558 6557 1e-08 0
6477 6478 6558 1e-08 0
6478 6559 6558 1e-08 0
6478 6479 6560 1e-08 0
6478 6560 6559 1e-08 0

