; SWASHES macdonald-rain-sub — MacDonald 1000 m channel, subcritical with rain (SWASHES 3.3.1)
; generated by swasheslib.gen1d for solver 1d-fv; nx=1000 dx=1 W=500.0 n=0.033

[TITLE]
SWASHES macdonald-rain-sub / 1d-fv

[OPTIONS]
FLOW_UNITS             CMS
FLOW_ROUTING           FV
START_DATE             01/01/2026
START_TIME             00:00:00
REPORT_START_DATE      01/01/2026
REPORT_START_TIME      00:00:00
END_DATE               01/01/2026
END_TIME               1:40:00
ROUTING_STEP           0.04
REPORT_STEP            0:01:00
WET_STEP               0:01:00
DRY_STEP               0:01:00
INERTIAL_DAMPING       PARTIAL
NODE_CONTINUITY        EXPLICIT
NORMAL_FLOW_LIMITED    SLOPE
VARIABLE_STEP          0
LENGTHENING_STEP       0
MIN_SURFAREA           0.01
MAX_TRIALS             32
HEAD_TOLERANCE         1e-6
SURCHARGE_METHOD       EXTRAN
MIN_SLOPE              0
ALLOW_PONDING          NO
SKIP_STEADY_STATE      NO
INFILTRATION           HORTON
LINK_OFFSETS           DEPTH
FV_MIN_CELLS           1

[JUNCTIONS]
;;Name           InvertElev  MaxDepth  InitDepth  SurDepth  Aponded
N0000            4.580031    7.917     0.000000   0         0
N0001            4.576720    7.917     0.000000   0         0
N0002            4.573402    7.917     0.000000   0         0
N0003            4.570080    7.917     0.000000   0         0
N0004            4.566751    7.917     0.000000   0         0
N0005            4.563417    7.917     0.000000   0         0
N0006            4.560077    7.917     0.000000   0         0
N0007            4.556731    7.917     0.000000   0         0
N0008            4.553380    7.917     0.000000   0         0
N0009            4.550023    7.917     0.000000   0         0
N0010            4.546660    7.917     0.000000   0         0
N0011            4.543292    7.917     0.000000   0         0
N0012            4.539919    7.917     0.000000   0         0
N0013            4.536539    7.917     0.000000   0         0
N0014            4.533154    7.917     0.000000   0         0
N0015            4.529764    7.917     0.000000   0         0
N0016            4.526368    7.917     0.000000   0         0
N0017            4.522966    7.917     0.000000   0         0
N0018            4.519559    7.917     0.000000   0         0
N0019            4.516146    7.917     0.000000   0         0
N0020            4.512728    7.917     0.000000   0         0
N0021            4.509304    7.917     0.000000   0         0
N0022            4.505875    7.917     0.000000   0         0
N0023            4.502441    7.917     0.000000   0         0
N0024            4.499000    7.917     0.000000   0         0
N0025            4.495555    7.917     0.000000   0         0
N0026            4.492104    7.917     0.000000   0         0
N0027            4.488648    7.917     0.000000   0         0
N0028            4.485186    7.917     0.000000   0         0
N0029            4.481719    7.917     0.000000   0         0
N0030            4.478246    7.917     0.000000   0         0
N0031            4.474768    7.917     0.000000   0         0
N0032            4.471285    7.917     0.000000   0         0
N0033            4.467796    7.917     0.000000   0         0
N0034            4.464302    7.917     0.000000   0         0
N0035            4.460803    7.917     0.000000   0         0
N0036            4.457299    7.917     0.000000   0         0
N0037            4.453789    7.917     0.000000   0         0
N0038            4.450274    7.917     0.000000   0         0
N0039            4.446754    7.917     0.000000   0         0
N0040            4.443229    7.917     0.000000   0         0
N0041            4.439698    7.917     0.000000   0         0
N0042            4.436162    7.917     0.000000   0         0
N0043            4.432622    7.917     0.000000   0         0
N0044            4.429076    7.917     0.000000   0         0
N0045            4.425524    7.917     0.000000   0         0
N0046            4.421968    7.917     0.000000   0         0
N0047            4.418407    7.917     0.000000   0         0
N0048            4.414841    7.917     0.000000   0         0
N0049            4.411270    7.917     0.000000   0         0
N0050            4.407693    7.917     0.000000   0         0
N0051            4.404112    7.917     0.000000   0         0
N0052            4.400526    7.917     0.000000   0         0
N0053            4.396935    7.917     0.000000   0         0
N0054            4.393339    7.917     0.000000   0         0
N0055            4.389738    7.917     0.000000   0         0
N0056            4.386132    7.917     0.000000   0         0
N0057            4.382522    7.917     0.000000   0         0
N0058            4.378906    7.917     0.000000   0         0
N0059            4.375286    7.917     0.000000   0         0
N0060            4.371661    7.917     0.000000   0         0
N0061            4.368032    7.917     0.000000   0         0
N0062            4.364397    7.917     0.000000   0         0
N0063            4.360758    7.917     0.000000   0         0
N0064            4.357115    7.917     0.000000   0         0
N0065            4.353466    7.917     0.000000   0         0
N0066            4.349813    7.917     0.000000   0         0
N0067            4.346156    7.917     0.000000   0         0
N0068            4.342494    7.917     0.000000   0         0
N0069            4.338827    7.917     0.000000   0         0
N0070            4.335156    7.917     0.000000   0         0
N0071            4.331481    7.917     0.000000   0         0
N0072            4.327801    7.917     0.000000   0         0
N0073            4.324117    7.917     0.000000   0         0
N0074            4.320428    7.917     0.000000   0         0
N0075            4.316735    7.917     0.000000   0         0
N0076            4.313038    7.917     0.000000   0         0
N0077            4.309336    7.917     0.000000   0         0
N0078            4.305630    7.917     0.000000   0         0
N0079            4.301920    7.917     0.000000   0         0
N0080            4.298206    7.917     0.000000   0         0
N0081            4.294488    7.917     0.000000   0         0
N0082            4.290765    7.917     0.000000   0         0
N0083            4.287039    7.917     0.000000   0         0
N0084            4.283308    7.917     0.000000   0         0
N0085            4.279573    7.917     0.000000   0         0
N0086            4.275835    7.917     0.000000   0         0
N0087            4.272092    7.917     0.000000   0         0
N0088            4.268346    7.917     0.000000   0         0
N0089            4.264595    7.917     0.000000   0         0
N0090            4.260841    7.917     0.000000   0         0
N0091            4.257083    7.917     0.000000   0         0
N0092            4.253322    7.917     0.000000   0         0
N0093            4.249556    7.917     0.000000   0         0
N0094            4.245787    7.917     0.000000   0         0
N0095            4.242014    7.917     0.000000   0         0
N0096            4.238238    7.917     0.000000   0         0
N0097            4.234458    7.917     0.000000   0         0
N0098            4.230674    7.917     0.000000   0         0
N0099            4.226887    7.917     0.000000   0         0
N0100            4.223096    7.917     0.000000   0         0
N0101            4.219302    7.917     0.000000   0         0
N0102            4.215505    7.917     0.000000   0         0
N0103            4.211704    7.917     0.000000   0         0
N0104            4.207900    7.917     0.000000   0         0
N0105            4.204093    7.917     0.000000   0         0
N0106            4.200283    7.917     0.000000   0         0
N0107            4.196469    7.917     0.000000   0         0
N0108            4.192652    7.917     0.000000   0         0
N0109            4.188832    7.917     0.000000   0         0
N0110            4.185009    7.917     0.000000   0         0
N0111            4.181183    7.917     0.000000   0         0
N0112            4.177354    7.917     0.000000   0         0
N0113            4.173522    7.917     0.000000   0         0
N0114            4.169687    7.917     0.000000   0         0
N0115            4.165849    7.917     0.000000   0         0
N0116            4.162009    7.917     0.000000   0         0
N0117            4.158165    7.917     0.000000   0         0
N0118            4.154319    7.917     0.000000   0         0
N0119            4.150471    7.917     0.000000   0         0
N0120            4.146619    7.917     0.000000   0         0
N0121            4.142765    7.917     0.000000   0         0
N0122            4.138909    7.917     0.000000   0         0
N0123            4.135050    7.917     0.000000   0         0
N0124            4.131189    7.917     0.000000   0         0
N0125            4.127325    7.917     0.000000   0         0
N0126            4.123458    7.917     0.000000   0         0
N0127            4.119590    7.917     0.000000   0         0
N0128            4.115719    7.917     0.000000   0         0
N0129            4.111846    7.917     0.000000   0         0
N0130            4.107971    7.917     0.000000   0         0
N0131            4.104093    7.917     0.000000   0         0
N0132            4.100214    7.917     0.000000   0         0
N0133            4.096332    7.917     0.000000   0         0
N0134            4.092449    7.917     0.000000   0         0
N0135            4.088563    7.917     0.000000   0         0
N0136            4.084676    7.917     0.000000   0         0
N0137            4.080787    7.917     0.000000   0         0
N0138            4.076896    7.917     0.000000   0         0
N0139            4.073003    7.917     0.000000   0         0
N0140            4.069108    7.917     0.000000   0         0
N0141            4.065212    7.917     0.000000   0         0
N0142            4.061314    7.917     0.000000   0         0
N0143            4.057415    7.917     0.000000   0         0
N0144            4.053514    7.917     0.000000   0         0
N0145            4.049612    7.917     0.000000   0         0
N0146            4.045708    7.917     0.000000   0         0
N0147            4.041803    7.917     0.000000   0         0
N0148            4.037896    7.917     0.000000   0         0
N0149            4.033988    7.917     0.000000   0         0
N0150            4.030079    7.917     0.000000   0         0
N0151            4.026169    7.917     0.000000   0         0
N0152            4.022258    7.917     0.000000   0         0
N0153            4.018345    7.917     0.000000   0         0
N0154            4.014432    7.917     0.000000   0         0
N0155            4.010518    7.917     0.000000   0         0
N0156            4.006602    7.917     0.000000   0         0
N0157            4.002686    7.917     0.000000   0         0
N0158            3.998769    7.917     0.000000   0         0
N0159            3.994851    7.917     0.000000   0         0
N0160            3.990932    7.917     0.000000   0         0
N0161            3.987013    7.917     0.000000   0         0
N0162            3.983093    7.917     0.000000   0         0
N0163            3.979172    7.917     0.000000   0         0
N0164            3.975251    7.917     0.000000   0         0
N0165            3.971330    7.917     0.000000   0         0
N0166            3.967407    7.917     0.000000   0         0
N0167            3.963485    7.917     0.000000   0         0
N0168            3.959562    7.917     0.000000   0         0
N0169            3.955639    7.917     0.000000   0         0
N0170            3.951716    7.917     0.000000   0         0
N0171            3.947792    7.917     0.000000   0         0
N0172            3.943868    7.917     0.000000   0         0
N0173            3.939945    7.917     0.000000   0         0
N0174            3.936021    7.917     0.000000   0         0
N0175            3.932097    7.917     0.000000   0         0
N0176            3.928173    7.917     0.000000   0         0
N0177            3.924249    7.917     0.000000   0         0
N0178            3.920326    7.917     0.000000   0         0
N0179            3.916402    7.917     0.000000   0         0
N0180            3.912479    7.917     0.000000   0         0
N0181            3.908557    7.917     0.000000   0         0
N0182            3.904634    7.917     0.000000   0         0
N0183            3.900712    7.917     0.000000   0         0
N0184            3.896790    7.917     0.000000   0         0
N0185            3.892869    7.917     0.000000   0         0
N0186            3.888948    7.917     0.000000   0         0
N0187            3.885028    7.917     0.000000   0         0
N0188            3.881109    7.917     0.000000   0         0
N0189            3.877190    7.917     0.000000   0         0
N0190            3.873272    7.917     0.000000   0         0
N0191            3.869355    7.917     0.000000   0         0
N0192            3.865438    7.917     0.000000   0         0
N0193            3.861523    7.917     0.000000   0         0
N0194            3.857608    7.917     0.000000   0         0
N0195            3.853694    7.917     0.000000   0         0
N0196            3.849782    7.917     0.000000   0         0
N0197            3.845870    7.917     0.000000   0         0
N0198            3.841959    7.917     0.000000   0         0
N0199            3.838050    7.917     0.000000   0         0
N0200            3.834142    7.917     0.000000   0         0
N0201            3.830235    7.917     0.000000   0         0
N0202            3.826329    7.917     0.000000   0         0
N0203            3.822425    7.917     0.000000   0         0
N0204            3.818522    7.917     0.000000   0         0
N0205            3.814620    7.917     0.000000   0         0
N0206            3.810720    7.917     0.000000   0         0
N0207            3.806822    7.917     0.000000   0         0
N0208            3.802925    7.917     0.000000   0         0
N0209            3.799029    7.917     0.000000   0         0
N0210            3.795135    7.917     0.000000   0         0
N0211            3.791243    7.917     0.000000   0         0
N0212            3.787353    7.917     0.000000   0         0
N0213            3.783465    7.917     0.000000   0         0
N0214            3.779578    7.917     0.000000   0         0
N0215            3.775693    7.917     0.000000   0         0
N0216            3.771810    7.917     0.000000   0         0
N0217            3.767929    7.917     0.000000   0         0
N0218            3.764050    7.917     0.000000   0         0
N0219            3.760173    7.917     0.000000   0         0
N0220            3.756299    7.917     0.000000   0         0
N0221            3.752426    7.917     0.000000   0         0
N0222            3.748556    7.917     0.000000   0         0
N0223            3.744687    7.917     0.000000   0         0
N0224            3.740821    7.917     0.000000   0         0
N0225            3.736958    7.917     0.000000   0         0
N0226            3.733096    7.917     0.000000   0         0
N0227            3.729237    7.917     0.000000   0         0
N0228            3.725381    7.917     0.000000   0         0
N0229            3.721527    7.917     0.000000   0         0
N0230            3.717675    7.917     0.000000   0         0
N0231            3.713826    7.917     0.000000   0         0
N0232            3.709980    7.917     0.000000   0         0
N0233            3.706136    7.917     0.000000   0         0
N0234            3.702295    7.917     0.000000   0         0
N0235            3.698457    7.917     0.000000   0         0
N0236            3.694621    7.917     0.000000   0         0
N0237            3.690788    7.917     0.000000   0         0
N0238            3.686958    7.917     0.000000   0         0
N0239            3.683131    7.917     0.000000   0         0
N0240            3.679307    7.917     0.000000   0         0
N0241            3.675486    7.917     0.000000   0         0
N0242            3.671668    7.917     0.000000   0         0
N0243            3.667853    7.917     0.000000   0         0
N0244            3.664041    7.917     0.000000   0         0
N0245            3.660232    7.917     0.000000   0         0
N0246            3.656426    7.917     0.000000   0         0
N0247            3.652623    7.917     0.000000   0         0
N0248            3.648824    7.917     0.000000   0         0
N0249            3.645028    7.917     0.000000   0         0
N0250            3.641235    7.917     0.000000   0         0
N0251            3.637446    7.917     0.000000   0         0
N0252            3.633660    7.917     0.000000   0         0
N0253            3.629877    7.917     0.000000   0         0
N0254            3.626098    7.917     0.000000   0         0
N0255            3.622322    7.917     0.000000   0         0
N0256            3.618550    7.917     0.000000   0         0
N0257            3.614782    7.917     0.000000   0         0
N0258            3.611017    7.917     0.000000   0         0
N0259            3.607256    7.917     0.000000   0         0
N0260            3.603498    7.917     0.000000   0         0
N0261            3.599744    7.917     0.000000   0         0
N0262            3.595994    7.917     0.000000   0         0
N0263            3.592248    7.917     0.000000   0         0
N0264            3.588506    7.917     0.000000   0         0
N0265            3.584767    7.917     0.000000   0         0
N0266            3.581033    7.917     0.000000   0         0
N0267            3.577302    7.917     0.000000   0         0
N0268            3.573575    7.917     0.000000   0         0
N0269            3.569853    7.917     0.000000   0         0
N0270            3.566134    7.917     0.000000   0         0
N0271            3.562420    7.917     0.000000   0         0
N0272            3.558709    7.917     0.000000   0         0
N0273            3.555003    7.917     0.000000   0         0
N0274            3.551301    7.917     0.000000   0         0
N0275            3.547604    7.917     0.000000   0         0
N0276            3.543910    7.917     0.000000   0         0
N0277            3.540221    7.917     0.000000   0         0
N0278            3.536536    7.917     0.000000   0         0
N0279            3.532856    7.917     0.000000   0         0
N0280            3.529180    7.917     0.000000   0         0
N0281            3.525509    7.917     0.000000   0         0
N0282            3.521842    7.917     0.000000   0         0
N0283            3.518179    7.917     0.000000   0         0
N0284            3.514522    7.917     0.000000   0         0
N0285            3.510868    7.917     0.000000   0         0
N0286            3.507220    7.917     0.000000   0         0
N0287            3.503576    7.917     0.000000   0         0
N0288            3.499937    7.917     0.000000   0         0
N0289            3.496303    7.917     0.000000   0         0
N0290            3.492673    7.917     0.000000   0         0
N0291            3.489048    7.917     0.000000   0         0
N0292            3.485428    7.917     0.000000   0         0
N0293            3.481813    7.917     0.000000   0         0
N0294            3.478203    7.917     0.000000   0         0
N0295            3.474598    7.917     0.000000   0         0
N0296            3.470998    7.917     0.000000   0         0
N0297            3.467403    7.917     0.000000   0         0
N0298            3.463813    7.917     0.000000   0         0
N0299            3.460229    7.917     0.000000   0         0
N0300            3.456649    7.917     0.000000   0         0
N0301            3.453075    7.917     0.000000   0         0
N0302            3.449506    7.917     0.000000   0         0
N0303            3.445942    7.917     0.000000   0         0
N0304            3.442383    7.917     0.000000   0         0
N0305            3.438830    7.917     0.000000   0         0
N0306            3.435282    7.917     0.000000   0         0
N0307            3.431740    7.917     0.000000   0         0
N0308            3.428203    7.917     0.000000   0         0
N0309            3.424671    7.917     0.000000   0         0
N0310            3.421145    7.917     0.000000   0         0
N0311            3.417625    7.917     0.000000   0         0
N0312            3.414110    7.917     0.000000   0         0
N0313            3.410601    7.917     0.000000   0         0
N0314            3.407098    7.917     0.000000   0         0
N0315            3.403600    7.917     0.000000   0         0
N0316            3.400108    7.917     0.000000   0         0
N0317            3.396622    7.917     0.000000   0         0
N0318            3.393142    7.917     0.000000   0         0
N0319            3.389667    7.917     0.000000   0         0
N0320            3.386199    7.917     0.000000   0         0
N0321            3.382736    7.917     0.000000   0         0
N0322            3.379280    7.917     0.000000   0         0
N0323            3.375829    7.917     0.000000   0         0
N0324            3.372385    7.917     0.000000   0         0
N0325            3.368946    7.917     0.000000   0         0
N0326            3.365514    7.917     0.000000   0         0
N0327            3.362088    7.917     0.000000   0         0
N0328            3.358668    7.917     0.000000   0         0
N0329            3.355255    7.917     0.000000   0         0
N0330            3.351847    7.917     0.000000   0         0
N0331            3.348447    7.917     0.000000   0         0
N0332            3.345052    7.917     0.000000   0         0
N0333            3.341664    7.917     0.000000   0         0
N0334            3.338282    7.917     0.000000   0         0
N0335            3.334907    7.917     0.000000   0         0
N0336            3.331538    7.917     0.000000   0         0
N0337            3.328176    7.917     0.000000   0         0
N0338            3.324821    7.917     0.000000   0         0
N0339            3.321472    7.917     0.000000   0         0
N0340            3.318130    7.917     0.000000   0         0
N0341            3.314794    7.917     0.000000   0         0
N0342            3.311466    7.917     0.000000   0         0
N0343            3.308144    7.917     0.000000   0         0
N0344            3.304829    7.917     0.000000   0         0
N0345            3.301521    7.917     0.000000   0         0
N0346            3.298220    7.917     0.000000   0         0
N0347            3.294925    7.917     0.000000   0         0
N0348            3.291638    7.917     0.000000   0         0
N0349            3.288358    7.917     0.000000   0         0
N0350            3.285085    7.917     0.000000   0         0
N0351            3.281819    7.917     0.000000   0         0
N0352            3.278560    7.917     0.000000   0         0
N0353            3.275308    7.917     0.000000   0         0
N0354            3.272064    7.917     0.000000   0         0
N0355            3.268827    7.917     0.000000   0         0
N0356            3.265597    7.917     0.000000   0         0
N0357            3.262375    7.917     0.000000   0         0
N0358            3.259160    7.917     0.000000   0         0
N0359            3.255952    7.917     0.000000   0         0
N0360            3.252752    7.917     0.000000   0         0
N0361            3.249559    7.917     0.000000   0         0
N0362            3.246374    7.917     0.000000   0         0
N0363            3.243196    7.917     0.000000   0         0
N0364            3.240027    7.917     0.000000   0         0
N0365            3.236864    7.917     0.000000   0         0
N0366            3.233710    7.917     0.000000   0         0
N0367            3.230563    7.917     0.000000   0         0
N0368            3.227424    7.917     0.000000   0         0
N0369            3.224293    7.917     0.000000   0         0
N0370            3.221169    7.917     0.000000   0         0
N0371            3.218054    7.917     0.000000   0         0
N0372            3.214946    7.917     0.000000   0         0
N0373            3.211847    7.917     0.000000   0         0
N0374            3.208755    7.917     0.000000   0         0
N0375            3.205671    7.917     0.000000   0         0
N0376            3.202596    7.917     0.000000   0         0
N0377            3.199529    7.917     0.000000   0         0
N0378            3.196469    7.917     0.000000   0         0
N0379            3.193418    7.917     0.000000   0         0
N0380            3.190375    7.917     0.000000   0         0
N0381            3.187341    7.917     0.000000   0         0
N0382            3.184315    7.917     0.000000   0         0
N0383            3.181297    7.917     0.000000   0         0
N0384            3.178287    7.917     0.000000   0         0
N0385            3.175286    7.917     0.000000   0         0
N0386            3.172293    7.917     0.000000   0         0
N0387            3.169308    7.917     0.000000   0         0
N0388            3.166333    7.917     0.000000   0         0
N0389            3.163365    7.917     0.000000   0         0
N0390            3.160406    7.917     0.000000   0         0
N0391            3.157456    7.917     0.000000   0         0
N0392            3.154515    7.917     0.000000   0         0
N0393            3.151582    7.917     0.000000   0         0
N0394            3.148657    7.917     0.000000   0         0
N0395            3.145742    7.917     0.000000   0         0
N0396            3.142835    7.917     0.000000   0         0
N0397            3.139937    7.917     0.000000   0         0
N0398            3.137048    7.917     0.000000   0         0
N0399            3.134167    7.917     0.000000   0         0
N0400            3.131296    7.917     0.000000   0         0
N0401            3.128433    7.917     0.000000   0         0
N0402            3.125579    7.917     0.000000   0         0
N0403            3.122735    7.917     0.000000   0         0
N0404            3.119899    7.917     0.000000   0         0
N0405            3.117072    7.917     0.000000   0         0
N0406            3.114254    7.917     0.000000   0         0
N0407            3.111445    7.917     0.000000   0         0
N0408            3.108646    7.917     0.000000   0         0
N0409            3.105855    7.917     0.000000   0         0
N0410            3.103074    7.917     0.000000   0         0
N0411            3.100301    7.917     0.000000   0         0
N0412            3.097538    7.917     0.000000   0         0
N0413            3.094784    7.917     0.000000   0         0
N0414            3.092039    7.917     0.000000   0         0
N0415            3.089304    7.917     0.000000   0         0
N0416            3.086578    7.917     0.000000   0         0
N0417            3.083861    7.917     0.000000   0         0
N0418            3.081153    7.917     0.000000   0         0
N0419            3.078454    7.917     0.000000   0         0
N0420            3.075765    7.917     0.000000   0         0
N0421            3.073086    7.917     0.000000   0         0
N0422            3.070415    7.917     0.000000   0         0
N0423            3.067754    7.917     0.000000   0         0
N0424            3.065102    7.917     0.000000   0         0
N0425            3.062460    7.917     0.000000   0         0
N0426            3.059827    7.917     0.000000   0         0
N0427            3.057204    7.917     0.000000   0         0
N0428            3.054590    7.917     0.000000   0         0
N0429            3.051985    7.917     0.000000   0         0
N0430            3.049390    7.917     0.000000   0         0
N0431            3.046804    7.917     0.000000   0         0
N0432            3.044228    7.917     0.000000   0         0
N0433            3.041661    7.917     0.000000   0         0
N0434            3.039104    7.917     0.000000   0         0
N0435            3.036556    7.917     0.000000   0         0
N0436            3.034018    7.917     0.000000   0         0
N0437            3.031489    7.917     0.000000   0         0
N0438            3.028970    7.917     0.000000   0         0
N0439            3.026460    7.917     0.000000   0         0
N0440            3.023960    7.917     0.000000   0         0
N0441            3.021469    7.917     0.000000   0         0
N0442            3.018988    7.917     0.000000   0         0
N0443            3.016516    7.917     0.000000   0         0
N0444            3.014054    7.917     0.000000   0         0
N0445            3.011601    7.917     0.000000   0         0
N0446            3.009157    7.917     0.000000   0         0
N0447            3.006724    7.917     0.000000   0         0
N0448            3.004299    7.917     0.000000   0         0
N0449            3.001884    7.917     0.000000   0         0
N0450            2.999479    7.917     0.000000   0         0
N0451            2.997083    7.917     0.000000   0         0
N0452            2.994696    7.917     0.000000   0         0
N0453            2.992319    7.917     0.000000   0         0
N0454            2.989951    7.917     0.000000   0         0
N0455            2.987593    7.917     0.000000   0         0
N0456            2.985244    7.917     0.000000   0         0
N0457            2.982905    7.917     0.000000   0         0
N0458            2.980574    7.917     0.000000   0         0
N0459            2.978253    7.917     0.000000   0         0
N0460            2.975942    7.917     0.000000   0         0
N0461            2.973639    7.917     0.000000   0         0
N0462            2.971346    7.917     0.000000   0         0
N0463            2.969063    7.917     0.000000   0         0
N0464            2.966788    7.917     0.000000   0         0
N0465            2.964523    7.917     0.000000   0         0
N0466            2.962266    7.917     0.000000   0         0
N0467            2.960019    7.917     0.000000   0         0
N0468            2.957781    7.917     0.000000   0         0
N0469            2.955552    7.917     0.000000   0         0
N0470            2.953333    7.917     0.000000   0         0
N0471            2.951122    7.917     0.000000   0         0
N0472            2.948920    7.917     0.000000   0         0
N0473            2.946727    7.917     0.000000   0         0
N0474            2.944543    7.917     0.000000   0         0
N0475            2.942368    7.917     0.000000   0         0
N0476            2.940202    7.917     0.000000   0         0
N0477            2.938044    7.917     0.000000   0         0
N0478            2.935895    7.917     0.000000   0         0
N0479            2.933755    7.917     0.000000   0         0
N0480            2.931624    7.917     0.000000   0         0
N0481            2.929501    7.917     0.000000   0         0
N0482            2.927387    7.917     0.000000   0         0
N0483            2.925281    7.917     0.000000   0         0
N0484            2.923184    7.917     0.000000   0         0
N0485            2.921096    7.917     0.000000   0         0
N0486            2.919015    7.917     0.000000   0         0
N0487            2.916943    7.917     0.000000   0         0
N0488            2.914879    7.917     0.000000   0         0
N0489            2.912824    7.917     0.000000   0         0
N0490            2.910776    7.917     0.000000   0         0
N0491            2.908737    7.917     0.000000   0         0
N0492            2.906706    7.917     0.000000   0         0
N0493            2.904682    7.917     0.000000   0         0
N0494            2.902667    7.917     0.000000   0         0
N0495            2.900659    7.917     0.000000   0         0
N0496            2.898660    7.917     0.000000   0         0
N0497            2.896667    7.917     0.000000   0         0
N0498            2.894683    7.917     0.000000   0         0
N0499            2.892706    7.917     0.000000   0         0
N0500            2.890737    7.917     0.000000   0         0
N0501            2.888775    7.917     0.000000   0         0
N0502            2.886820    7.917     0.000000   0         0
N0503            2.884873    7.917     0.000000   0         0
N0504            2.882933    7.917     0.000000   0         0
N0505            2.881000    7.917     0.000000   0         0
N0506            2.879074    7.917     0.000000   0         0
N0507            2.877155    7.917     0.000000   0         0
N0508            2.875243    7.917     0.000000   0         0
N0509            2.873338    7.917     0.000000   0         0
N0510            2.871439    7.917     0.000000   0         0
N0511            2.869547    7.917     0.000000   0         0
N0512            2.867662    7.917     0.000000   0         0
N0513            2.865783    7.917     0.000000   0         0
N0514            2.863910    7.917     0.000000   0         0
N0515            2.862044    7.917     0.000000   0         0
N0516            2.860184    7.917     0.000000   0         0
N0517            2.858330    7.917     0.000000   0         0
N0518            2.856482    7.917     0.000000   0         0
N0519            2.854640    7.917     0.000000   0         0
N0520            2.852803    7.917     0.000000   0         0
N0521            2.850973    7.917     0.000000   0         0
N0522            2.849148    7.917     0.000000   0         0
N0523            2.847328    7.917     0.000000   0         0
N0524            2.845514    7.917     0.000000   0         0
N0525            2.843705    7.917     0.000000   0         0
N0526            2.841901    7.917     0.000000   0         0
N0527            2.840102    7.917     0.000000   0         0
N0528            2.838308    7.917     0.000000   0         0
N0529            2.836519    7.917     0.000000   0         0
N0530            2.834735    7.917     0.000000   0         0
N0531            2.832955    7.917     0.000000   0         0
N0532            2.831180    7.917     0.000000   0         0
N0533            2.829409    7.917     0.000000   0         0
N0534            2.827642    7.917     0.000000   0         0
N0535            2.825880    7.917     0.000000   0         0
N0536            2.824121    7.917     0.000000   0         0
N0537            2.822367    7.917     0.000000   0         0
N0538            2.820616    7.917     0.000000   0         0
N0539            2.818869    7.917     0.000000   0         0
N0540            2.817125    7.917     0.000000   0         0
N0541            2.815385    7.917     0.000000   0         0
N0542            2.813648    7.917     0.000000   0         0
N0543            2.811914    7.917     0.000000   0         0
N0544            2.810183    7.917     0.000000   0         0
N0545            2.808454    7.917     0.000000   0         0
N0546            2.806729    7.917     0.000000   0         0
N0547            2.805006    7.917     0.000000   0         0
N0548            2.803286    7.917     0.000000   0         0
N0549            2.801568    7.917     0.000000   0         0
N0550            2.799852    7.917     0.000000   0         0
N0551            2.798138    7.917     0.000000   0         0
N0552            2.796425    7.917     0.000000   0         0
N0553            2.794715    7.917     0.000000   0         0
N0554            2.793006    7.917     0.000000   0         0
N0555            2.791299    7.917     0.000000   0         0
N0556            2.789593    7.917     0.000000   0         0
N0557            2.787888    7.917     0.000000   0         0
N0558            2.786184    7.917     0.000000   0         0
N0559            2.784481    7.917     0.000000   0         0
N0560            2.782778    7.917     0.000000   0         0
N0561            2.781076    7.917     0.000000   0         0
N0562            2.779375    7.917     0.000000   0         0
N0563            2.777673    7.917     0.000000   0         0
N0564            2.775972    7.917     0.000000   0         0
N0565            2.774270    7.917     0.000000   0         0
N0566            2.772569    7.917     0.000000   0         0
N0567            2.770866    7.917     0.000000   0         0
N0568            2.769164    7.917     0.000000   0         0
N0569            2.767460    7.917     0.000000   0         0
N0570            2.765756    7.917     0.000000   0         0
N0571            2.764050    7.917     0.000000   0         0
N0572            2.762343    7.917     0.000000   0         0
N0573            2.760635    7.917     0.000000   0         0
N0574            2.758925    7.917     0.000000   0         0
N0575            2.757214    7.917     0.000000   0         0
N0576            2.755500    7.917     0.000000   0         0
N0577            2.753784    7.917     0.000000   0         0
N0578            2.752066    7.917     0.000000   0         0
N0579            2.750346    7.917     0.000000   0         0
N0580            2.748623    7.917     0.000000   0         0
N0581            2.746897    7.917     0.000000   0         0
N0582            2.745168    7.917     0.000000   0         0
N0583            2.743436    7.917     0.000000   0         0
N0584            2.741701    7.917     0.000000   0         0
N0585            2.739962    7.917     0.000000   0         0
N0586            2.738219    7.917     0.000000   0         0
N0587            2.736472    7.917     0.000000   0         0
N0588            2.734722    7.917     0.000000   0         0
N0589            2.732967    7.917     0.000000   0         0
N0590            2.731207    7.917     0.000000   0         0
N0591            2.729443    7.917     0.000000   0         0
N0592            2.727674    7.917     0.000000   0         0
N0593            2.725900    7.917     0.000000   0         0
N0594            2.724121    7.917     0.000000   0         0
N0595            2.722336    7.917     0.000000   0         0
N0596            2.720546    7.917     0.000000   0         0
N0597            2.718750    7.917     0.000000   0         0
N0598            2.716948    7.917     0.000000   0         0
N0599            2.715140    7.917     0.000000   0         0
N0600            2.713325    7.917     0.000000   0         0
N0601            2.711504    7.917     0.000000   0         0
N0602            2.709676    7.917     0.000000   0         0
N0603            2.707842    7.917     0.000000   0         0
N0604            2.706000    7.917     0.000000   0         0
N0605            2.704150    7.917     0.000000   0         0
N0606            2.702293    7.917     0.000000   0         0
N0607            2.700429    7.917     0.000000   0         0
N0608            2.698556    7.917     0.000000   0         0
N0609            2.696675    7.917     0.000000   0         0
N0610            2.694786    7.917     0.000000   0         0
N0611            2.692889    7.917     0.000000   0         0
N0612            2.690982    7.917     0.000000   0         0
N0613            2.689067    7.917     0.000000   0         0
N0614            2.687142    7.917     0.000000   0         0
N0615            2.685208    7.917     0.000000   0         0
N0616            2.683265    7.917     0.000000   0         0
N0617            2.681312    7.917     0.000000   0         0
N0618            2.679348    7.917     0.000000   0         0
N0619            2.677375    7.917     0.000000   0         0
N0620            2.675391    7.917     0.000000   0         0
N0621            2.673396    7.917     0.000000   0         0
N0622            2.671391    7.917     0.000000   0         0
N0623            2.669375    7.917     0.000000   0         0
N0624            2.667347    7.917     0.000000   0         0
N0625            2.665308    7.917     0.000000   0         0
N0626            2.663258    7.917     0.000000   0         0
N0627            2.661195    7.917     0.000000   0         0
N0628            2.659121    7.917     0.000000   0         0
N0629            2.657034    7.917     0.000000   0         0
N0630            2.654934    7.917     0.000000   0         0
N0631            2.652822    7.917     0.000000   0         0
N0632            2.650697    7.917     0.000000   0         0
N0633            2.648559    7.917     0.000000   0         0
N0634            2.646408    7.917     0.000000   0         0
N0635            2.644243    7.917     0.000000   0         0
N0636            2.642064    7.917     0.000000   0         0
N0637            2.639872    7.917     0.000000   0         0
N0638            2.637665    7.917     0.000000   0         0
N0639            2.635444    7.917     0.000000   0         0
N0640            2.633208    7.917     0.000000   0         0
N0641            2.630958    7.917     0.000000   0         0
N0642            2.628692    7.917     0.000000   0         0
N0643            2.626411    7.917     0.000000   0         0
N0644            2.624115    7.917     0.000000   0         0
N0645            2.621803    7.917     0.000000   0         0
N0646            2.619475    7.917     0.000000   0         0
N0647            2.617131    7.917     0.000000   0         0
N0648            2.614771    7.917     0.000000   0         0
N0649            2.612395    7.917     0.000000   0         0
N0650            2.610001    7.917     0.000000   0         0
N0651            2.607591    7.917     0.000000   0         0
N0652            2.605164    7.917     0.000000   0         0
N0653            2.602719    7.917     0.000000   0         0
N0654            2.600257    7.917     0.000000   0         0
N0655            2.597777    7.917     0.000000   0         0
N0656            2.595279    7.917     0.000000   0         0
N0657            2.592763    7.917     0.000000   0         0
N0658            2.590228    7.917     0.000000   0         0
N0659            2.587675    7.917     0.000000   0         0
N0660            2.585103    7.917     0.000000   0         0
N0661            2.582513    7.917     0.000000   0         0
N0662            2.579902    7.917     0.000000   0         0
N0663            2.577273    7.917     0.000000   0         0
N0664            2.574624    7.917     0.000000   0         0
N0665            2.571955    7.917     0.000000   0         0
N0666            2.569266    7.917     0.000000   0         0
N0667            2.566557    7.917     0.000000   0         0
N0668            2.563827    7.917     0.000000   0         0
N0669            2.561077    7.917     0.000000   0         0
N0670            2.558305    7.917     0.000000   0         0
N0671            2.555513    7.917     0.000000   0         0
N0672            2.552700    7.917     0.000000   0         0
N0673            2.549865    7.917     0.000000   0         0
N0674            2.547008    7.917     0.000000   0         0
N0675            2.544130    7.917     0.000000   0         0
N0676            2.541229    7.917     0.000000   0         0
N0677            2.538306    7.917     0.000000   0         0
N0678            2.535361    7.917     0.000000   0         0
N0679            2.532393    7.917     0.000000   0         0
N0680            2.529402    7.917     0.000000   0         0
N0681            2.526389    7.917     0.000000   0         0
N0682            2.523352    7.917     0.000000   0         0
N0683            2.520291    7.917     0.000000   0         0
N0684            2.517207    7.917     0.000000   0         0
N0685            2.514099    7.917     0.000000   0         0
N0686            2.510968    7.917     0.000000   0         0
N0687            2.507812    7.917     0.000000   0         0
N0688            2.504631    7.917     0.000000   0         0
N0689            2.501426    7.917     0.000000   0         0
N0690            2.498197    7.917     0.000000   0         0
N0691            2.494942    7.917     0.000000   0         0
N0692            2.491662    7.917     0.000000   0         0
N0693            2.488357    7.917     0.000000   0         0
N0694            2.485026    7.917     0.000000   0         0
N0695            2.481670    7.917     0.000000   0         0
N0696            2.478288    7.917     0.000000   0         0
N0697            2.474880    7.917     0.000000   0         0
N0698            2.471446    7.917     0.000000   0         0
N0699            2.467985    7.917     0.000000   0         0
N0700            2.464498    7.917     0.000000   0         0
N0701            2.460984    7.917     0.000000   0         0
N0702            2.457443    7.917     0.000000   0         0
N0703            2.453875    7.917     0.000000   0         0
N0704            2.450280    7.917     0.000000   0         0
N0705            2.446657    7.917     0.000000   0         0
N0706            2.443007    7.917     0.000000   0         0
N0707            2.439329    7.917     0.000000   0         0
N0708            2.435623    7.917     0.000000   0         0
N0709            2.431889    7.917     0.000000   0         0
N0710            2.428127    7.917     0.000000   0         0
N0711            2.424336    7.917     0.000000   0         0
N0712            2.420517    7.917     0.000000   0         0
N0713            2.416669    7.917     0.000000   0         0
N0714            2.412793    7.917     0.000000   0         0
N0715            2.408887    7.917     0.000000   0         0
N0716            2.404952    7.917     0.000000   0         0
N0717            2.400988    7.917     0.000000   0         0
N0718            2.396994    7.917     0.000000   0         0
N0719            2.392971    7.917     0.000000   0         0
N0720            2.388918    7.917     0.000000   0         0
N0721            2.384835    7.917     0.000000   0         0
N0722            2.380722    7.917     0.000000   0         0
N0723            2.376578    7.917     0.000000   0         0
N0724            2.372405    7.917     0.000000   0         0
N0725            2.368201    7.917     0.000000   0         0
N0726            2.363966    7.917     0.000000   0         0
N0727            2.359701    7.917     0.000000   0         0
N0728            2.355404    7.917     0.000000   0         0
N0729            2.351077    7.917     0.000000   0         0
N0730            2.346718    7.917     0.000000   0         0
N0731            2.342329    7.917     0.000000   0         0
N0732            2.337907    7.917     0.000000   0         0
N0733            2.333455    7.917     0.000000   0         0
N0734            2.328971    7.917     0.000000   0         0
N0735            2.324454    7.917     0.000000   0         0
N0736            2.319907    7.917     0.000000   0         0
N0737            2.315327    7.917     0.000000   0         0
N0738            2.310715    7.917     0.000000   0         0
N0739            2.306070    7.917     0.000000   0         0
N0740            2.301394    7.917     0.000000   0         0
N0741            2.296685    7.917     0.000000   0         0
N0742            2.291943    7.917     0.000000   0         0
N0743            2.287169    7.917     0.000000   0         0
N0744            2.282362    7.917     0.000000   0         0
N0745            2.277522    7.917     0.000000   0         0
N0746            2.272649    7.917     0.000000   0         0
N0747            2.267743    7.917     0.000000   0         0
N0748            2.262804    7.917     0.000000   0         0
N0749            2.257832    7.917     0.000000   0         0
N0750            2.252826    7.917     0.000000   0         0
N0751            2.247787    7.917     0.000000   0         0
N0752            2.242715    7.917     0.000000   0         0
N0753            2.237608    7.917     0.000000   0         0
N0754            2.232469    7.917     0.000000   0         0
N0755            2.227295    7.917     0.000000   0         0
N0756            2.222088    7.917     0.000000   0         0
N0757            2.216846    7.917     0.000000   0         0
N0758            2.211571    7.917     0.000000   0         0
N0759            2.206261    7.917     0.000000   0         0
N0760            2.200918    7.917     0.000000   0         0
N0761            2.195540    7.917     0.000000   0         0
N0762            2.190128    7.917     0.000000   0         0
N0763            2.184682    7.917     0.000000   0         0
N0764            2.179201    7.917     0.000000   0         0
N0765            2.173686    7.917     0.000000   0         0
N0766            2.168136    7.917     0.000000   0         0
N0767            2.162551    7.917     0.000000   0         0
N0768            2.156932    7.917     0.000000   0         0
N0769            2.151279    7.917     0.000000   0         0
N0770            2.145590    7.917     0.000000   0         0
N0771            2.139867    7.917     0.000000   0         0
N0772            2.134109    7.917     0.000000   0         0
N0773            2.128316    7.917     0.000000   0         0
N0774            2.122489    7.917     0.000000   0         0
N0775            2.116626    7.917     0.000000   0         0
N0776            2.110728    7.917     0.000000   0         0
N0777            2.104795    7.917     0.000000   0         0
N0778            2.098828    7.917     0.000000   0         0
N0779            2.092825    7.917     0.000000   0         0
N0780            2.086787    7.917     0.000000   0         0
N0781            2.080714    7.917     0.000000   0         0
N0782            2.074605    7.917     0.000000   0         0
N0783            2.068462    7.917     0.000000   0         0
N0784            2.062283    7.917     0.000000   0         0
N0785            2.056069    7.917     0.000000   0         0
N0786            2.049820    7.917     0.000000   0         0
N0787            2.043535    7.917     0.000000   0         0
N0788            2.037215    7.917     0.000000   0         0
N0789            2.030860    7.917     0.000000   0         0
N0790            2.024470    7.917     0.000000   0         0
N0791            2.018044    7.917     0.000000   0         0
N0792            2.011583    7.917     0.000000   0         0
N0793            2.005087    7.917     0.000000   0         0
N0794            1.998556    7.917     0.000000   0         0
N0795            1.991989    7.917     0.000000   0         0
N0796            1.985386    7.917     0.000000   0         0
N0797            1.978749    7.917     0.000000   0         0
N0798            1.972076    7.917     0.000000   0         0
N0799            1.965368    7.917     0.000000   0         0
N0800            1.958625    7.917     0.000000   0         0
N0801            1.951846    7.917     0.000000   0         0
N0802            1.945032    7.917     0.000000   0         0
N0803            1.938183    7.917     0.000000   0         0
N0804            1.931299    7.917     0.000000   0         0
N0805            1.924379    7.917     0.000000   0         0
N0806            1.917424    7.917     0.000000   0         0
N0807            1.910435    7.917     0.000000   0         0
N0808            1.903410    7.917     0.000000   0         0
N0809            1.896350    7.917     0.000000   0         0
N0810            1.889255    7.917     0.000000   0         0
N0811            1.882124    7.917     0.000000   0         0
N0812            1.874959    7.917     0.000000   0         0
N0813            1.867759    7.917     0.000000   0         0
N0814            1.860524    7.917     0.000000   0         0
N0815            1.853254    7.917     0.000000   0         0
N0816            1.845949    7.917     0.000000   0         0
N0817            1.838610    7.917     0.000000   0         0
N0818            1.831236    7.917     0.000000   0         0
N0819            1.823827    7.917     0.000000   0         0
N0820            1.816383    7.917     0.000000   0         0
N0821            1.808904    7.917     0.000000   0         0
N0822            1.801392    7.917     0.000000   0         0
N0823            1.793844    7.917     0.000000   0         0
N0824            1.786262    7.917     0.000000   0         0
N0825            1.778646    7.917     0.000000   0         0
N0826            1.770995    7.917     0.000000   0         0
N0827            1.763310    7.917     0.000000   0         0
N0828            1.755591    7.917     0.000000   0         0
N0829            1.747838    7.917     0.000000   0         0
N0830            1.740050    7.917     0.000000   0         0
N0831            1.732229    7.917     0.000000   0         0
N0832            1.724373    7.917     0.000000   0         0
N0833            1.716484    7.917     0.000000   0         0
N0834            1.708561    7.917     0.000000   0         0
N0835            1.700604    7.917     0.000000   0         0
N0836            1.692613    7.917     0.000000   0         0
N0837            1.684589    7.917     0.000000   0         0
N0838            1.676531    7.917     0.000000   0         0
N0839            1.668439    7.917     0.000000   0         0
N0840            1.660314    7.917     0.000000   0         0
N0841            1.652156    7.917     0.000000   0         0
N0842            1.643965    7.917     0.000000   0         0
N0843            1.635740    7.917     0.000000   0         0
N0844            1.627482    7.917     0.000000   0         0
N0845            1.619192    7.917     0.000000   0         0
N0846            1.610868    7.917     0.000000   0         0
N0847            1.602512    7.917     0.000000   0         0
N0848            1.594122    7.917     0.000000   0         0
N0849            1.585700    7.917     0.000000   0         0
N0850            1.577246    7.917     0.000000   0         0
N0851            1.568759    7.917     0.000000   0         0
N0852            1.560239    7.917     0.000000   0         0
N0853            1.551688    7.917     0.000000   0         0
N0854            1.543104    7.917     0.000000   0         0
N0855            1.534488    7.917     0.000000   0         0
N0856            1.525839    7.917     0.000000   0         0
N0857            1.517159    7.917     0.000000   0         0
N0858            1.508447    7.917     0.000000   0         0
N0859            1.499704    7.917     0.000000   0         0
N0860            1.490928    7.917     0.000000   0         0
N0861            1.482121    7.917     0.000000   0         0
N0862            1.473283    7.917     0.000000   0         0
N0863            1.464413    7.917     0.000000   0         0
N0864            1.455512    7.917     0.000000   0         0
N0865            1.446580    7.917     0.000000   0         0
N0866            1.437617    7.917     0.000000   0         0
N0867            1.428623    7.917     0.000000   0         0
N0868            1.419598    7.917     0.000000   0         0
N0869            1.410542    7.917     0.000000   0         0
N0870            1.401456    7.917     0.000000   0         0
N0871            1.392339    7.917     0.000000   0         0
N0872            1.383191    7.917     0.000000   0         0
N0873            1.374014    7.917     0.000000   0         0
N0874            1.364806    7.917     0.000000   0         0
N0875            1.355568    7.917     0.000000   0         0
N0876            1.346299    7.917     0.000000   0         0
N0877            1.337001    7.917     0.000000   0         0
N0878            1.327674    7.917     0.000000   0         0
N0879            1.318316    7.917     0.000000   0         0
N0880            1.308929    7.917     0.000000   0         0
N0881            1.299513    7.917     0.000000   0         0
N0882            1.290067    7.917     0.000000   0         0
N0883            1.280592    7.917     0.000000   0         0
N0884            1.271088    7.917     0.000000   0         0
N0885            1.261554    7.917     0.000000   0         0
N0886            1.251992    7.917     0.000000   0         0
N0887            1.242401    7.917     0.000000   0         0
N0888            1.232782    7.917     0.000000   0         0
N0889            1.223133    7.917     0.000000   0         0
N0890            1.213457    7.917     0.000000   0         0
N0891            1.203752    7.917     0.000000   0         0
N0892            1.194018    7.917     0.000000   0         0
N0893            1.184257    7.917     0.000000   0         0
N0894            1.174467    7.917     0.000000   0         0
N0895            1.164650    7.917     0.000000   0         0
N0896            1.154805    7.917     0.000000   0         0
N0897            1.144932    7.917     0.000000   0         0
N0898            1.135032    7.917     0.000000   0         0
N0899            1.125104    7.917     0.000000   0         0
N0900            1.115149    7.917     0.000000   0         0
N0901            1.105167    7.917     0.000000   0         0
N0902            1.095157    7.917     0.000000   0         0
N0903            1.085121    7.917     0.000000   0         0
N0904            1.075057    7.917     0.000000   0         0
N0905            1.064967    7.917     0.000000   0         0
N0906            1.054850    7.917     0.000000   0         0
N0907            1.044707    7.917     0.000000   0         0
N0908            1.034537    7.917     0.000000   0         0
N0909            1.024341    7.917     0.000000   0         0
N0910            1.014119    7.917     0.000000   0         0
N0911            1.003871    7.917     0.000000   0         0
N0912            0.993596    7.917     0.000000   0         0
N0913            0.983296    7.917     0.000000   0         0
N0914            0.972970    7.917     0.000000   0         0
N0915            0.962619    7.917     0.000000   0         0
N0916            0.952242    7.917     0.000000   0         0
N0917            0.941839    7.917     0.000000   0         0
N0918            0.931411    7.917     0.000000   0         0
N0919            0.920959    7.917     0.000000   0         0
N0920            0.910480    7.917     0.000000   0         0
N0921            0.899977    7.917     0.000000   0         0
N0922            0.889449    7.917     0.000000   0         0
N0923            0.878897    7.917     0.000000   0         0
N0924            0.868320    7.917     0.000000   0         0
N0925            0.857718    7.917     0.000000   0         0
N0926            0.847091    7.917     0.000000   0         0
N0927            0.836441    7.917     0.000000   0         0
N0928            0.825766    7.917     0.000000   0         0
N0929            0.815067    7.917     0.000000   0         0
N0930            0.804344    7.917     0.000000   0         0
N0931            0.793598    7.917     0.000000   0         0
N0932            0.782827    7.917     0.000000   0         0
N0933            0.772033    7.917     0.000000   0         0
N0934            0.761215    7.917     0.000000   0         0
N0935            0.750374    7.917     0.000000   0         0
N0936            0.739509    7.917     0.000000   0         0
N0937            0.728622    7.917     0.000000   0         0
N0938            0.717711    7.917     0.000000   0         0
N0939            0.706777    7.917     0.000000   0         0
N0940            0.695820    7.917     0.000000   0         0
N0941            0.684840    7.917     0.000000   0         0
N0942            0.673838    7.917     0.000000   0         0
N0943            0.662812    7.917     0.000000   0         0
N0944            0.651765    7.917     0.000000   0         0
N0945            0.640695    7.917     0.000000   0         0
N0946            0.629602    7.917     0.000000   0         0
N0947            0.618488    7.917     0.000000   0         0
N0948            0.607351    7.917     0.000000   0         0
N0949            0.596192    7.917     0.000000   0         0
N0950            0.585011    7.917     0.000000   0         0
N0951            0.573809    7.917     0.000000   0         0
N0952            0.562584    7.917     0.000000   0         0
N0953            0.551339    7.917     0.000000   0         0
N0954            0.540071    7.917     0.000000   0         0
N0955            0.528782    7.917     0.000000   0         0
N0956            0.517472    7.917     0.000000   0         0
N0957            0.506140    7.917     0.000000   0         0
N0958            0.494787    7.917     0.000000   0         0
N0959            0.483414    7.917     0.000000   0         0
N0960            0.472019    7.917     0.000000   0         0
N0961            0.460603    7.917     0.000000   0         0
N0962            0.449167    7.917     0.000000   0         0
N0963            0.437709    7.917     0.000000   0         0
N0964            0.426232    7.917     0.000000   0         0
N0965            0.414733    7.917     0.000000   0         0
N0966            0.403215    7.917     0.000000   0         0
N0967            0.391675    7.917     0.000000   0         0
N0968            0.380116    7.917     0.000000   0         0
N0969            0.368536    7.917     0.000000   0         0
N0970            0.356937    7.917     0.000000   0         0
N0971            0.345317    7.917     0.000000   0         0
N0972            0.333677    7.917     0.000000   0         0
N0973            0.322018    7.917     0.000000   0         0
N0974            0.310339    7.917     0.000000   0         0
N0975            0.298640    7.917     0.000000   0         0
N0976            0.286921    7.917     0.000000   0         0
N0977            0.275183    7.917     0.000000   0         0
N0978            0.263426    7.917     0.000000   0         0
N0979            0.251649    7.917     0.000000   0         0
N0980            0.239853    7.917     0.000000   0         0
N0981            0.228037    7.917     0.000000   0         0
N0982            0.216203    7.917     0.000000   0         0
N0983            0.204350    7.917     0.000000   0         0
N0984            0.192477    7.917     0.000000   0         0
N0985            0.180586    7.917     0.000000   0         0
N0986            0.168676    7.917     0.000000   0         0
N0987            0.156747    7.917     0.000000   0         0
N0988            0.144799    7.917     0.000000   0         0
N0989            0.132833    7.917     0.000000   0         0
N0990            0.120849    7.917     0.000000   0         0
N0991            0.108846    7.917     0.000000   0         0
N0992            0.096824    7.917     0.000000   0         0
N0993            0.084785    7.917     0.000000   0         0
N0994            0.072727    7.917     0.000000   0         0
N0995            0.060651    7.917     0.000000   0         0
N0996            0.048556    7.917     0.000000   0         0
N0997            0.036444    7.917     0.000000   0         0
N0998            0.024314    7.917     0.000000   0         0
N0999            0.012166    7.917     0.000000   0         0

[OUTFALLS]
;;Name           InvertElev  Type   StageData  Gated
N1000            0.000000    FIXED  0.748324   NO

[CONDUITS]
;;Name           FromNode         ToNode           Length     Roughness  InOffset  OutOffset  InitFlow  MaxFlow
C0000            N0000            N0001            1.000000   0.033      0         0          0.0000    0
C0001            N0001            N0002            1.000000   0.033      0         0          0.0000    0
C0002            N0002            N0003            1.000000   0.033      0         0          0.0000    0
C0003            N0003            N0004            1.000000   0.033      0         0          0.0000    0
C0004            N0004            N0005            1.000000   0.033      0         0          0.0000    0
C0005            N0005            N0006            1.000000   0.033      0         0          0.0000    0
C0006            N0006            N0007            1.000000   0.033      0         0          0.0000    0
C0007            N0007            N0008            1.000000   0.033      0         0          0.0000    0
C0008            N0008            N0009            1.000000   0.033      0         0          0.0000    0
C0009            N0009            N0010            1.000000   0.033      0         0          0.0000    0
C0010            N0010            N0011            1.000000   0.033      0         0          0.0000    0
C0011            N0011            N0012            1.000000   0.033      0         0          0.0000    0
C0012            N0012            N0013            1.000000   0.033      0         0          0.0000    0
C0013            N0013            N0014            1.000000   0.033      0         0          0.0000    0
C0014            N0014            N0015            1.000000   0.033      0         0          0.0000    0
C0015            N0015            N0016            1.000000   0.033      0         0          0.0000    0
C0016            N0016            N0017            1.000000   0.033      0         0          0.0000    0
C0017            N0017            N0018            1.000000   0.033      0         0          0.0000    0
C0018            N0018            N0019            1.000000   0.033      0         0          0.0000    0
C0019            N0019            N0020            1.000000   0.033      0         0          0.0000    0
C0020            N0020            N0021            1.000000   0.033      0         0          0.0000    0
C0021            N0021            N0022            1.000000   0.033      0         0          0.0000    0
C0022            N0022            N0023            1.000000   0.033      0         0          0.0000    0
C0023            N0023            N0024            1.000000   0.033      0         0          0.0000    0
C0024            N0024            N0025            1.000000   0.033      0         0          0.0000    0
C0025            N0025            N0026            1.000000   0.033      0         0          0.0000    0
C0026            N0026            N0027            1.000000   0.033      0         0          0.0000    0
C0027            N0027            N0028            1.000000   0.033      0         0          0.0000    0
C0028            N0028            N0029            1.000000   0.033      0         0          0.0000    0
C0029            N0029            N0030            1.000000   0.033      0         0          0.0000    0
C0030            N0030            N0031            1.000000   0.033      0         0          0.0000    0
C0031            N0031            N0032            1.000000   0.033      0         0          0.0000    0
C0032            N0032            N0033            1.000000   0.033      0         0          0.0000    0
C0033            N0033            N0034            1.000000   0.033      0         0          0.0000    0
C0034            N0034            N0035            1.000000   0.033      0         0          0.0000    0
C0035            N0035            N0036            1.000000   0.033      0         0          0.0000    0
C0036            N0036            N0037            1.000000   0.033      0         0          0.0000    0
C0037            N0037            N0038            1.000000   0.033      0         0          0.0000    0
C0038            N0038            N0039            1.000000   0.033      0         0          0.0000    0
C0039            N0039            N0040            1.000000   0.033      0         0          0.0000    0
C0040            N0040            N0041            1.000000   0.033      0         0          0.0000    0
C0041            N0041            N0042            1.000000   0.033      0         0          0.0000    0
C0042            N0042            N0043            1.000000   0.033      0         0          0.0000    0
C0043            N0043            N0044            1.000000   0.033      0         0          0.0000    0
C0044            N0044            N0045            1.000000   0.033      0         0          0.0000    0
C0045            N0045            N0046            1.000000   0.033      0         0          0.0000    0
C0046            N0046            N0047            1.000000   0.033      0         0          0.0000    0
C0047            N0047            N0048            1.000000   0.033      0         0          0.0000    0
C0048            N0048            N0049            1.000000   0.033      0         0          0.0000    0
C0049            N0049            N0050            1.000000   0.033      0         0          0.0000    0
C0050            N0050            N0051            1.000000   0.033      0         0          0.0000    0
C0051            N0051            N0052            1.000000   0.033      0         0          0.0000    0
C0052            N0052            N0053            1.000000   0.033      0         0          0.0000    0
C0053            N0053            N0054            1.000000   0.033      0         0          0.0000    0
C0054            N0054            N0055            1.000000   0.033      0         0          0.0000    0
C0055            N0055            N0056            1.000000   0.033      0         0          0.0000    0
C0056            N0056            N0057            1.000000   0.033      0         0          0.0000    0
C0057            N0057            N0058            1.000000   0.033      0         0          0.0000    0
C0058            N0058            N0059            1.000000   0.033      0         0          0.0000    0
C0059            N0059            N0060            1.000000   0.033      0         0          0.0000    0
C0060            N0060            N0061            1.000000   0.033      0         0          0.0000    0
C0061            N0061            N0062            1.000000   0.033      0         0          0.0000    0
C0062            N0062            N0063            1.000000   0.033      0         0          0.0000    0
C0063            N0063            N0064            1.000000   0.033      0         0          0.0000    0
C0064            N0064            N0065            1.000000   0.033      0         0          0.0000    0
C0065            N0065            N0066            1.000000   0.033      0         0          0.0000    0
C0066            N0066            N0067            1.000000   0.033      0         0          0.0000    0
C0067            N0067            N0068            1.000000   0.033      0         0          0.0000    0
C0068            N0068            N0069            1.000000   0.033      0         0          0.0000    0
C0069            N0069            N0070            1.000000   0.033      0         0          0.0000    0
C0070            N0070            N0071            1.000000   0.033      0         0          0.0000    0
C0071            N0071            N0072            1.000000   0.033      0         0          0.0000    0
C0072            N0072            N0073            1.000000   0.033      0         0          0.0000    0
C0073            N0073            N0074            1.000000   0.033      0         0          0.0000    0
C0074            N0074            N0075            1.000000   0.033      0         0          0.0000    0
C0075            N0075            N0076            1.000000   0.033      0         0          0.0000    0
C0076            N0076            N0077            1.000000   0.033      0         0          0.0000    0
C0077            N0077            N0078            1.000000   0.033      0         0          0.0000    0
C0078            N0078            N0079            1.000000   0.033      0         0          0.0000    0
C0079            N0079            N0080            1.000000   0.033      0         0          0.0000    0
C0080            N0080            N0081            1.000000   0.033      0         0          0.0000    0
C0081            N0081            N0082            1.000000   0.033      0         0          0.0000    0
C0082            N0082            N0083            1.000000   0.033      0         0          0.0000    0
C0083            N0083            N0084            1.000000   0.033      0         0          0.0000    0
C0084            N0084            N0085            1.000000   0.033      0         0          0.0000    0
C0085            N0085            N0086            1.000000   0.033      0         0          0.0000    0
C0086            N0086            N0087            1.000000   0.033      0         0          0.0000    0
C0087            N0087            N0088            1.000000   0.033      0         0          0.0000    0
C0088            N0088            N0089            1.000000   0.033      0         0          0.0000    0
C0089            N0089            N0090            1.000000   0.033      0         0          0.0000    0
C0090            N0090            N0091            1.000000   0.033      0         0          0.0000    0
C0091            N0091            N0092            1.000000   0.033      0         0          0.0000    0
C0092            N0092            N0093            1.000000   0.033      0         0          0.0000    0
C0093            N0093            N0094            1.000000   0.033      0         0          0.0000    0
C0094            N0094            N0095            1.000000   0.033      0         0          0.0000    0
C0095            N0095            N0096            1.000000   0.033      0         0          0.0000    0
C0096            N0096            N0097            1.000000   0.033      0         0          0.0000    0
C0097            N0097            N0098            1.000000   0.033      0         0          0.0000    0
C0098            N0098            N0099            1.000000   0.033      0         0          0.0000    0
C0099            N0099            N0100            1.000000   0.033      0         0          0.0000    0
C0100            N0100            N0101            1.000000   0.033      0         0          0.0000    0
C0101            N0101            N0102            1.000000   0.033      0         0          0.0000    0
C0102            N0102            N0103            1.000000   0.033      0         0          0.0000    0
C0103            N0103            N0104            1.000000   0.033      0         0          0.0000    0
C0104            N0104            N0105            1.000000   0.033      0         0          0.0000    0
C0105            N0105            N0106            1.000000   0.033      0         0          0.0000    0
C0106            N0106            N0107            1.000000   0.033      0         0          0.0000    0
C0107            N0107            N0108            1.000000   0.033      0         0          0.0000    0
C0108            N0108            N0109            1.000000   0.033      0         0          0.0000    0
C0109            N0109            N0110            1.000000   0.033      0         0          0.0000    0
C0110            N0110            N0111            1.000000   0.033      0         0          0.0000    0
C0111            N0111            N0112            1.000000   0.033      0         0          0.0000    0
C0112            N0112            N0113            1.000000   0.033      0         0          0.0000    0
C0113            N0113            N0114            1.000000   0.033      0         0          0.0000    0
C0114            N0114            N0115            1.000000   0.033      0         0          0.0000    0
C0115            N0115            N0116            1.000000   0.033      0         0          0.0000    0
C0116            N0116            N0117            1.000000   0.033      0         0          0.0000    0
C0117            N0117            N0118            1.000000   0.033      0         0          0.0000    0
C0118            N0118            N0119            1.000000   0.033      0         0          0.0000    0
C0119            N0119            N0120            1.000000   0.033      0         0          0.0000    0
C0120            N0120            N0121            1.000000   0.033      0         0          0.0000    0
C0121            N0121            N0122            1.000000   0.033      0         0          0.0000    0
C0122            N0122            N0123            1.000000   0.033      0         0          0.0000    0
C0123            N0123            N0124            1.000000   0.033      0         0          0.0000    0
C0124            N0124            N0125            1.000000   0.033      0         0          0.0000    0
C0125            N0125            N0126            1.000000   0.033      0         0          0.0000    0
C0126            N0126            N0127            1.000000   0.033      0         0          0.0000    0
C0127            N0127            N0128            1.000000   0.033      0         0          0.0000    0
C0128            N0128            N0129            1.000000   0.033      0         0          0.0000    0
C0129            N0129            N0130            1.000000   0.033      0         0          0.0000    0
C0130            N0130            N0131            1.000000   0.033      0         0          0.0000    0
C0131            N0131            N0132            1.000000   0.033      0         0          0.0000    0
C0132            N0132            N0133            1.000000   0.033      0         0          0.0000    0
C0133            N0133            N0134            1.000000   0.033      0         0          0.0000    0
C0134            N0134            N0135            1.000000   0.033      0         0          0.0000    0
C0135            N0135            N0136            1.000000   0.033      0         0          0.0000    0
C0136            N0136            N0137            1.000000   0.033      0         0          0.0000    0
C0137            N0137            N0138            1.000000   0.033      0         0          0.0000    0
C0138            N0138            N0139            1.000000   0.033      0         0          0.0000    0
C0139            N0139            N0140            1.000000   0.033      0         0          0.0000    0
C0140            N0140            N0141            1.000000   0.033      0         0          0.0000    0
C0141            N0141            N0142            1.000000   0.033      0         0          0.0000    0
C0142            N0142            N0143            1.000000   0.033      0         0          0.0000    0
C0143            N0143            N0144            1.000000   0.033      0         0          0.0000    0
C0144            N0144            N0145            1.000000   0.033      0         0          0.0000    0
C0145            N0145            N0146            1.000000   0.033      0         0          0.0000    0
C0146            N0146            N0147            1.000000   0.033      0         0          0.0000    0
C0147            N0147            N0148            1.000000   0.033      0         0          0.0000    0
C0148            N0148            N0149            1.000000   0.033      0         0          0.0000    0
C0149            N0149            N0150            1.000000   0.033      0         0          0.0000    0
C0150            N0150            N0151            1.000000   0.033      0         0          0.0000    0
C0151            N0151            N0152            1.000000   0.033      0         0          0.0000    0
C0152            N0152            N0153            1.000000   0.033      0         0          0.0000    0
C0153            N0153            N0154            1.000000   0.033      0         0          0.0000    0
C0154            N0154            N0155            1.000000   0.033      0         0          0.0000    0
C0155            N0155            N0156            1.000000   0.033      0         0          0.0000    0
C0156            N0156            N0157            1.000000   0.033      0         0          0.0000    0
C0157            N0157            N0158            1.000000   0.033      0         0          0.0000    0
C0158            N0158            N0159            1.000000   0.033      0         0          0.0000    0
C0159            N0159            N0160            1.000000   0.033      0         0          0.0000    0
C0160            N0160            N0161            1.000000   0.033      0         0          0.0000    0
C0161            N0161            N0162            1.000000   0.033      0         0          0.0000    0
C0162            N0162            N0163            1.000000   0.033      0         0          0.0000    0
C0163            N0163            N0164            1.000000   0.033      0         0          0.0000    0
C0164            N0164            N0165            1.000000   0.033      0         0          0.0000    0
C0165            N0165            N0166            1.000000   0.033      0         0          0.0000    0
C0166            N0166            N0167            1.000000   0.033      0         0          0.0000    0
C0167            N0167            N0168            1.000000   0.033      0         0          0.0000    0
C0168            N0168            N0169            1.000000   0.033      0         0          0.0000    0
C0169            N0169            N0170            1.000000   0.033      0         0          0.0000    0
C0170            N0170            N0171            1.000000   0.033      0         0          0.0000    0
C0171            N0171            N0172            1.000000   0.033      0         0          0.0000    0
C0172            N0172            N0173            1.000000   0.033      0         0          0.0000    0
C0173            N0173            N0174            1.000000   0.033      0         0          0.0000    0
C0174            N0174            N0175            1.000000   0.033      0         0          0.0000    0
C0175            N0175            N0176            1.000000   0.033      0         0          0.0000    0
C0176            N0176            N0177            1.000000   0.033      0         0          0.0000    0
C0177            N0177            N0178            1.000000   0.033      0         0          0.0000    0
C0178            N0178            N0179            1.000000   0.033      0         0          0.0000    0
C0179            N0179            N0180            1.000000   0.033      0         0          0.0000    0
C0180            N0180            N0181            1.000000   0.033      0         0          0.0000    0
C0181            N0181            N0182            1.000000   0.033      0         0          0.0000    0
C0182            N0182            N0183            1.000000   0.033      0         0          0.0000    0
C0183            N0183            N0184            1.000000   0.033      0         0          0.0000    0
C0184            N0184            N0185            1.000000   0.033      0         0          0.0000    0
C0185            N0185            N0186            1.000000   0.033      0         0          0.0000    0
C0186            N0186            N0187            1.000000   0.033      0         0          0.0000    0
C0187            N0187            N0188            1.000000   0.033      0         0          0.0000    0
C0188            N0188            N0189            1.000000   0.033      0         0          0.0000    0
C0189            N0189            N0190            1.000000   0.033      0         0          0.0000    0
C0190            N0190            N0191            1.000000   0.033      0         0          0.0000    0
C0191            N0191            N0192            1.000000   0.033      0         0          0.0000    0
C0192            N0192            N0193            1.000000   0.033      0         0          0.0000    0
C0193            N0193            N0194            1.000000   0.033      0         0          0.0000    0
C0194            N0194            N0195            1.000000   0.033      0         0          0.0000    0
C0195            N0195            N0196            1.000000   0.033      0         0          0.0000    0
C0196            N0196            N0197            1.000000   0.033      0         0          0.0000    0
C0197            N0197            N0198            1.000000   0.033      0         0          0.0000    0
C0198            N0198            N0199            1.000000   0.033      0         0          0.0000    0
C0199            N0199            N0200            1.000000   0.033      0         0          0.0000    0
C0200            N0200            N0201            1.000000   0.033      0         0          0.0000    0
C0201            N0201            N0202            1.000000   0.033      0         0          0.0000    0
C0202            N0202            N0203            1.000000   0.033      0         0          0.0000    0
C0203            N0203            N0204            1.000000   0.033      0         0          0.0000    0
C0204            N0204            N0205            1.000000   0.033      0         0          0.0000    0
C0205            N0205            N0206            1.000000   0.033      0         0          0.0000    0
C0206            N0206            N0207            1.000000   0.033      0         0          0.0000    0
C0207            N0207            N0208            1.000000   0.033      0         0          0.0000    0
C0208            N0208            N0209            1.000000   0.033      0         0          0.0000    0
C0209            N0209            N0210            1.000000   0.033      0         0          0.0000    0
C0210            N0210            N0211            1.000000   0.033      0         0          0.0000    0
C0211            N0211            N0212            1.000000   0.033      0         0          0.0000    0
C0212            N0212            N0213            1.000000   0.033      0         0          0.0000    0
C0213            N0213            N0214            1.000000   0.033      0         0          0.0000    0
C0214            N0214            N0215            1.000000   0.033      0         0          0.0000    0
C0215            N0215            N0216            1.000000   0.033      0         0          0.0000    0
C0216            N0216            N0217            1.000000   0.033      0         0          0.0000    0
C0217            N0217            N0218            1.000000   0.033      0         0          0.0000    0
C0218            N0218            N0219            1.000000   0.033      0         0          0.0000    0
C0219            N0219            N0220            1.000000   0.033      0         0          0.0000    0
C0220            N0220            N0221            1.000000   0.033      0         0          0.0000    0
C0221            N0221            N0222            1.000000   0.033      0         0          0.0000    0
C0222            N0222            N0223            1.000000   0.033      0         0          0.0000    0
C0223            N0223            N0224            1.000000   0.033      0         0          0.0000    0
C0224            N0224            N0225            1.000000   0.033      0         0          0.0000    0
C0225            N0225            N0226            1.000000   0.033      0         0          0.0000    0
C0226            N0226            N0227            1.000000   0.033      0         0          0.0000    0
C0227            N0227            N0228            1.000000   0.033      0         0          0.0000    0
C0228            N0228            N0229            1.000000   0.033      0         0          0.0000    0
C0229            N0229            N0230            1.000000   0.033      0         0          0.0000    0
C0230            N0230            N0231            1.000000   0.033      0         0          0.0000    0
C0231            N0231            N0232            1.000000   0.033      0         0          0.0000    0
C0232            N0232            N0233            1.000000   0.033      0         0          0.0000    0
C0233            N0233            N0234            1.000000   0.033      0         0          0.0000    0
C0234            N0234            N0235            1.000000   0.033      0         0          0.0000    0
C0235            N0235            N0236            1.000000   0.033      0         0          0.0000    0
C0236            N0236            N0237            1.000000   0.033      0         0          0.0000    0
C0237            N0237            N0238            1.000000   0.033      0         0          0.0000    0
C0238            N0238            N0239            1.000000   0.033      0         0          0.0000    0
C0239            N0239            N0240            1.000000   0.033      0         0          0.0000    0
C0240            N0240            N0241            1.000000   0.033      0         0          0.0000    0
C0241            N0241            N0242            1.000000   0.033      0         0          0.0000    0
C0242            N0242            N0243            1.000000   0.033      0         0          0.0000    0
C0243            N0243            N0244            1.000000   0.033      0         0          0.0000    0
C0244            N0244            N0245            1.000000   0.033      0         0          0.0000    0
C0245            N0245            N0246            1.000000   0.033      0         0          0.0000    0
C0246            N0246            N0247            1.000000   0.033      0         0          0.0000    0
C0247            N0247            N0248            1.000000   0.033      0         0          0.0000    0
C0248            N0248            N0249            1.000000   0.033      0         0          0.0000    0
C0249            N0249            N0250            1.000000   0.033      0         0          0.0000    0
C0250            N0250            N0251            1.000000   0.033      0         0          0.0000    0
C0251            N0251            N0252            1.000000   0.033      0         0          0.0000    0
C0252            N0252            N0253            1.000000   0.033      0         0          0.0000    0
C0253            N0253            N0254            1.000000   0.033      0         0          0.0000    0
C0254            N0254            N0255            1.000000   0.033      0         0          0.0000    0
C0255            N0255            N0256            1.000000   0.033      0         0          0.0000    0
C0256            N0256            N0257            1.000000   0.033      0         0          0.0000    0
C0257            N0257            N0258            1.000000   0.033      0         0          0.0000    0
C0258            N0258            N0259            1.000000   0.033      0         0          0.0000    0
C0259            N0259            N0260            1.000000   0.033      0         0          0.0000    0
C0260            N0260            N0261            1.000000   0.033      0         0          0.0000    0
C0261            N0261            N0262            1.000000   0.033      0         0          0.0000    0
C0262            N0262            N0263            1.000000   0.033      0         0          0.0000    0
C0263            N0263            N0264            1.000000   0.033      0         0          0.0000    0
C0264            N0264            N0265            1.000000   0.033      0         0          0.0000    0
C0265            N0265            N0266            1.000000   0.033      0         0          0.0000    0
C0266            N0266            N0267            1.000000   0.033      0         0          0.0000    0
C0267            N0267            N0268            1.000000   0.033      0         0          0.0000    0
C0268            N0268            N0269            1.000000   0.033      0         0          0.0000    0
C0269            N0269            N0270            1.000000   0.033      0         0          0.0000    0
C0270            N0270            N0271            1.000000   0.033      0         0          0.0000    0
C0271            N0271            N0272            1.000000   0.033      0         0          0.0000    0
C0272            N0272            N0273            1.000000   0.033      0         0          0.0000    0
C0273            N0273            N0274            1.000000   0.033      0         0          0.0000    0
C0274            N0274            N0275            1.000000   0.033      0         0          0.0000    0
C0275            N0275            N0276            1.000000   0.033      0         0          0.0000    0
C0276            N0276            N0277            1.000000   0.033      0         0          0.0000    0
C0277            N0277            N0278            1.000000   0.033      0         0          0.0000    0
C0278            N0278            N0279            1.000000   0.033      0         0          0.0000    0
C0279            N0279            N0280            1.000000   0.033      0         0          0.0000    0
C0280            N0280            N0281            1.000000   0.033      0         0          0.0000    0
C0281            N0281            N0282            1.000000   0.033      0         0          0.0000    0
C0282            N0282            N0283            1.000000   0.033      0         0          0.0000    0
C0283            N0283            N0284            1.000000   0.033      0         0          0.0000    0
C0284            N0284            N0285            1.000000   0.033      0         0          0.0000    0
C0285            N0285            N0286            1.000000   0.033      0         0          0.0000    0
C0286            N0286            N0287            1.000000   0.033      0         0          0.0000    0
C0287            N0287            N0288            1.000000   0.033      0         0          0.0000    0
C0288            N0288            N0289            1.000000   0.033      0         0          0.0000    0
C0289            N0289            N0290            1.000000   0.033      0         0          0.0000    0
C0290            N0290            N0291            1.000000   0.033      0         0          0.0000    0
C0291            N0291            N0292            1.000000   0.033      0         0          0.0000    0
C0292            N0292            N0293            1.000000   0.033      0         0          0.0000    0
C0293            N0293            N0294            1.000000   0.033      0         0          0.0000    0
C0294            N0294            N0295            1.000000   0.033      0         0          0.0000    0
C0295            N0295            N0296            1.000000   0.033      0         0          0.0000    0
C0296            N0296            N0297            1.000000   0.033      0         0          0.0000    0
C0297            N0297            N0298            1.000000   0.033      0         0          0.0000    0
C0298            N0298            N0299            1.000000   0.033      0         0          0.0000    0
C0299            N0299            N0300            1.000000   0.033      0         0          0.0000    0
C0300            N0300            N0301            1.000000   0.033      0         0          0.0000    0
C0301            N0301            N0302            1.000000   0.033      0         0          0.0000    0
C0302            N0302            N0303            1.000000   0.033      0         0          0.0000    0
C0303            N0303            N0304            1.000000   0.033      0         0          0.0000    0
C0304            N0304            N0305            1.000000   0.033      0         0          0.0000    0
C0305            N0305            N0306            1.000000   0.033      0         0          0.0000    0
C0306            N0306            N0307            1.000000   0.033      0         0          0.0000    0
C0307            N0307            N0308            1.000000   0.033      0         0          0.0000    0
C0308            N0308            N0309            1.000000   0.033      0         0          0.0000    0
C0309            N0309            N0310            1.000000   0.033      0         0          0.0000    0
C0310            N0310            N0311            1.000000   0.033      0         0          0.0000    0
C0311            N0311            N0312            1.000000   0.033      0         0          0.0000    0
C0312            N0312            N0313            1.000000   0.033      0         0          0.0000    0
C0313            N0313            N0314            1.000000   0.033      0         0          0.0000    0
C0314            N0314            N0315            1.000000   0.033      0         0          0.0000    0
C0315            N0315            N0316            1.000000   0.033      0         0          0.0000    0
C0316            N0316            N0317            1.000000   0.033      0         0          0.0000    0
C0317            N0317            N0318            1.000000   0.033      0         0          0.0000    0
C0318            N0318            N0319            1.000000   0.033      0         0          0.0000    0
C0319            N0319            N0320            1.000000   0.033      0         0          0.0000    0
C0320            N0320            N0321            1.000000   0.033      0         0          0.0000    0
C0321            N0321            N0322            1.000000   0.033      0         0          0.0000    0
C0322            N0322            N0323            1.000000   0.033      0         0          0.0000    0
C0323            N0323            N0324            1.000000   0.033      0         0          0.0000    0
C0324            N0324            N0325            1.000000   0.033      0         0          0.0000    0
C0325            N0325            N0326            1.000000   0.033      0         0          0.0000    0
C0326            N0326            N0327            1.000000   0.033      0         0          0.0000    0
C0327            N0327            N0328            1.000000   0.033      0         0          0.0000    0
C0328            N0328            N0329            1.000000   0.033      0         0          0.0000    0
C0329            N0329            N0330            1.000000   0.033      0         0          0.0000    0
C0330            N0330            N0331            1.000000   0.033      0         0          0.0000    0
C0331            N0331            N0332            1.000000   0.033      0         0          0.0000    0
C0332            N0332            N0333            1.000000   0.033      0         0          0.0000    0
C0333            N0333            N0334            1.000000   0.033      0         0          0.0000    0
C0334            N0334            N0335            1.000000   0.033      0         0          0.0000    0
C0335            N0335            N0336            1.000000   0.033      0         0          0.0000    0
C0336            N0336            N0337            1.000000   0.033      0         0          0.0000    0
C0337            N0337            N0338            1.000000   0.033      0         0          0.0000    0
C0338            N0338            N0339            1.000000   0.033      0         0          0.0000    0
C0339            N0339            N0340            1.000000   0.033      0         0          0.0000    0
C0340            N0340            N0341            1.000000   0.033      0         0          0.0000    0
C0341            N0341            N0342            1.000000   0.033      0         0          0.0000    0
C0342            N0342            N0343            1.000000   0.033      0         0          0.0000    0
C0343            N0343            N0344            1.000000   0.033      0         0          0.0000    0
C0344            N0344            N0345            1.000000   0.033      0         0          0.0000    0
C0345            N0345            N0346            1.000000   0.033      0         0          0.0000    0
C0346            N0346            N0347            1.000000   0.033      0         0          0.0000    0
C0347            N0347            N0348            1.000000   0.033      0         0          0.0000    0
C0348            N0348            N0349            1.000000   0.033      0         0          0.0000    0
C0349            N0349            N0350            1.000000   0.033      0         0          0.0000    0
C0350            N0350            N0351            1.000000   0.033      0         0          0.0000    0
C0351            N0351            N0352            1.000000   0.033      0         0          0.0000    0
C0352            N0352            N0353            1.000000   0.033      0         0          0.0000    0
C0353            N0353            N0354            1.000000   0.033      0         0          0.0000    0
C0354            N0354            N0355            1.000000   0.033      0         0          0.0000    0
C0355            N0355            N0356            1.000000   0.033      0         0          0.0000    0
C0356            N0356            N0357            1.000000   0.033      0         0          0.0000    0
C0357            N0357            N0358            1.000000   0.033      0         0          0.0000    0
C0358            N0358            N0359            1.000000   0.033      0         0          0.0000    0
C0359            N0359            N0360            1.000000   0.033      0         0          0.0000    0
C0360            N0360            N0361            1.000000   0.033      0         0          0.0000    0
C0361            N0361            N0362            1.000000   0.033      0         0          0.0000    0
C0362            N0362            N0363            1.000000   0.033      0         0          0.0000    0
C0363            N0363            N0364            1.000000   0.033      0         0          0.0000    0
C0364            N0364            N0365            1.000000   0.033      0         0          0.0000    0
C0365            N0365            N0366            1.000000   0.033      0         0          0.0000    0
C0366            N0366            N0367            1.000000   0.033      0         0          0.0000    0
C0367            N0367            N0368            1.000000   0.033      0         0          0.0000    0
C0368            N0368            N0369            1.000000   0.033      0         0          0.0000    0
C0369            N0369            N0370            1.000000   0.033      0         0          0.0000    0
C0370            N0370            N0371            1.000000   0.033      0         0          0.0000    0
C0371            N0371            N0372            1.000000   0.033      0         0          0.0000    0
C0372            N0372            N0373            1.000000   0.033      0         0          0.0000    0
C0373            N0373            N0374            1.000000   0.033      0         0          0.0000    0
C0374            N0374            N0375            1.000000   0.033      0         0          0.0000    0
C0375            N0375            N0376            1.000000   0.033      0         0          0.0000    0
C0376            N0376            N0377            1.000000   0.033      0         0          0.0000    0
C0377            N0377            N0378            1.000000   0.033      0         0          0.0000    0
C0378            N0378            N0379            1.000000   0.033      0         0          0.0000    0
C0379            N0379            N0380            1.000000   0.033      0         0          0.0000    0
C0380            N0380            N0381            1.000000   0.033      0         0          0.0000    0
C0381            N0381            N0382            1.000000   0.033      0         0          0.0000    0
C0382            N0382            N0383            1.000000   0.033      0         0          0.0000    0
C0383            N0383            N0384            1.000000   0.033      0         0          0.0000    0
C0384            N0384            N0385            1.000000   0.033      0         0          0.0000    0
C0385            N0385            N0386            1.000000   0.033      0         0          0.0000    0
C0386            N0386            N0387            1.000000   0.033      0         0          0.0000    0
C0387            N0387            N0388            1.000000   0.033      0         0          0.0000    0
C0388            N0388            N0389            1.000000   0.033      0         0          0.0000    0
C0389            N0389            N0390            1.000000   0.033      0         0          0.0000    0
C0390            N0390            N0391            1.000000   0.033      0         0          0.0000    0
C0391            N0391            N0392            1.000000   0.033      0         0          0.0000    0
C0392            N0392            N0393            1.000000   0.033      0         0          0.0000    0
C0393            N0393            N0394            1.000000   0.033      0         0          0.0000    0
C0394            N0394            N0395            1.000000   0.033      0         0          0.0000    0
C0395            N0395            N0396            1.000000   0.033      0         0          0.0000    0
C0396            N0396            N0397            1.000000   0.033      0         0          0.0000    0
C0397            N0397            N0398            1.000000   0.033      0         0          0.0000    0
C0398            N0398            N0399            1.000000   0.033      0         0          0.0000    0
C0399            N0399            N0400            1.000000   0.033      0         0          0.0000    0
C0400            N0400            N0401            1.000000   0.033      0         0          0.0000    0
C0401            N0401            N0402            1.000000   0.033      0         0          0.0000    0
C0402            N0402            N0403            1.000000   0.033      0         0          0.0000    0
C0403            N0403            N0404            1.000000   0.033      0         0          0.0000    0
C0404            N0404            N0405            1.000000   0.033      0         0          0.0000    0
C0405            N0405            N0406            1.000000   0.033      0         0          0.0000    0
C0406            N0406            N0407            1.000000   0.033      0         0          0.0000    0
C0407            N0407            N0408            1.000000   0.033      0         0          0.0000    0
C0408            N0408            N0409            1.000000   0.033      0         0          0.0000    0
C0409            N0409            N0410            1.000000   0.033      0         0          0.0000    0
C0410            N0410            N0411            1.000000   0.033      0         0          0.0000    0
C0411            N0411            N0412            1.000000   0.033      0         0          0.0000    0
C0412            N0412            N0413            1.000000   0.033      0         0          0.0000    0
C0413            N0413            N0414            1.000000   0.033      0         0          0.0000    0
C0414            N0414            N0415            1.000000   0.033      0         0          0.0000    0
C0415            N0415            N0416            1.000000   0.033      0         0          0.0000    0
C0416            N0416            N0417            1.000000   0.033      0         0          0.0000    0
C0417            N0417            N0418            1.000000   0.033      0         0          0.0000    0
C0418            N0418            N0419            1.000000   0.033      0         0          0.0000    0
C0419            N0419            N0420            1.000000   0.033      0         0          0.0000    0
C0420            N0420            N0421            1.000000   0.033      0         0          0.0000    0
C0421            N0421            N0422            1.000000   0.033      0         0          0.0000    0
C0422            N0422            N0423            1.000000   0.033      0         0          0.0000    0
C0423            N0423            N0424            1.000000   0.033      0         0          0.0000    0
C0424            N0424            N0425            1.000000   0.033      0         0          0.0000    0
C0425            N0425            N0426            1.000000   0.033      0         0          0.0000    0
C0426            N0426            N0427            1.000000   0.033      0         0          0.0000    0
C0427            N0427            N0428            1.000000   0.033      0         0          0.0000    0
C0428            N0428            N0429            1.000000   0.033      0         0          0.0000    0
C0429            N0429            N0430            1.000000   0.033      0         0          0.0000    0
C0430            N0430            N0431            1.000000   0.033      0         0          0.0000    0
C0431            N0431            N0432            1.000000   0.033      0         0          0.0000    0
C0432            N0432            N0433            1.000000   0.033      0         0          0.0000    0
C0433            N0433            N0434            1.000000   0.033      0         0          0.0000    0
C0434            N0434            N0435            1.000000   0.033      0         0          0.0000    0
C0435            N0435            N0436            1.000000   0.033      0         0          0.0000    0
C0436            N0436            N0437            1.000000   0.033      0         0          0.0000    0
C0437            N0437            N0438            1.000000   0.033      0         0          0.0000    0
C0438            N0438            N0439            1.000000   0.033      0         0          0.0000    0
C0439            N0439            N0440            1.000000   0.033      0         0          0.0000    0
C0440            N0440            N0441            1.000000   0.033      0         0          0.0000    0
C0441            N0441            N0442            1.000000   0.033      0         0          0.0000    0
C0442            N0442            N0443            1.000000   0.033      0         0          0.0000    0
C0443            N0443            N0444            1.000000   0.033      0         0          0.0000    0
C0444            N0444            N0445            1.000000   0.033      0         0          0.0000    0
C0445            N0445            N0446            1.000000   0.033      0         0          0.0000    0
C0446            N0446            N0447            1.000000   0.033      0         0          0.0000    0
C0447            N0447            N0448            1.000000   0.033      0         0          0.0000    0
C0448            N0448            N0449            1.000000   0.033      0         0          0.0000    0
C0449            N0449            N0450            1.000000   0.033      0         0          0.0000    0
C0450            N0450            N0451            1.000000   0.033      0         0          0.0000    0
C0451            N0451            N0452            1.000000   0.033      0         0          0.0000    0
C0452            N0452            N0453            1.000000   0.033      0         0          0.0000    0
C0453            N0453            N0454            1.000000   0.033      0         0          0.0000    0
C0454            N0454            N0455            1.000000   0.033      0         0          0.0000    0
C0455            N0455            N0456            1.000000   0.033      0         0          0.0000    0
C0456            N0456            N0457            1.000000   0.033      0         0          0.0000    0
C0457            N0457            N0458            1.000000   0.033      0         0          0.0000    0
C0458            N0458            N0459            1.000000   0.033      0         0          0.0000    0
C0459            N0459            N0460            1.000000   0.033      0         0          0.0000    0
C0460            N0460            N0461            1.000000   0.033      0         0          0.0000    0
C0461            N0461            N0462            1.000000   0.033      0         0          0.0000    0
C0462            N0462            N0463            1.000000   0.033      0         0          0.0000    0
C0463            N0463            N0464            1.000000   0.033      0         0          0.0000    0
C0464            N0464            N0465            1.000000   0.033      0         0          0.0000    0
C0465            N0465            N0466            1.000000   0.033      0         0          0.0000    0
C0466            N0466            N0467            1.000000   0.033      0         0          0.0000    0
C0467            N0467            N0468            1.000000   0.033      0         0          0.0000    0
C0468            N0468            N0469            1.000000   0.033      0         0          0.0000    0
C0469            N0469            N0470            1.000000   0.033      0         0          0.0000    0
C0470            N0470            N0471            1.000000   0.033      0         0          0.0000    0
C0471            N0471            N0472            1.000000   0.033      0         0          0.0000    0
C0472            N0472            N0473            1.000000   0.033      0         0          0.0000    0
C0473            N0473            N0474            1.000000   0.033      0         0          0.0000    0
C0474            N0474            N0475            1.000000   0.033      0         0          0.0000    0
C0475            N0475            N0476            1.000000   0.033      0         0          0.0000    0
C0476            N0476            N0477            1.000000   0.033      0         0          0.0000    0
C0477            N0477            N0478            1.000000   0.033      0         0          0.0000    0
C0478            N0478            N0479            1.000000   0.033      0         0          0.0000    0
C0479            N0479            N0480            1.000000   0.033      0         0          0.0000    0
C0480            N0480            N0481            1.000000   0.033      0         0          0.0000    0
C0481            N0481            N0482            1.000000   0.033      0         0          0.0000    0
C0482            N0482            N0483            1.000000   0.033      0         0          0.0000    0
C0483            N0483            N0484            1.000000   0.033      0         0          0.0000    0
C0484            N0484            N0485            1.000000   0.033      0         0          0.0000    0
C0485            N0485            N0486            1.000000   0.033      0         0          0.0000    0
C0486            N0486            N0487            1.000000   0.033      0         0          0.0000    0
C0487            N0487            N0488            1.000000   0.033      0         0          0.0000    0
C0488            N0488            N0489            1.000000   0.033      0         0          0.0000    0
C0489            N0489            N0490            1.000000   0.033      0         0          0.0000    0
C0490            N0490            N0491            1.000000   0.033      0         0          0.0000    0
C0491            N0491            N0492            1.000000   0.033      0         0          0.0000    0
C0492            N0492            N0493            1.000000   0.033      0         0          0.0000    0
C0493            N0493            N0494            1.000000   0.033      0         0          0.0000    0
C0494            N0494            N0495            1.000000   0.033      0         0          0.0000    0
C0495            N0495            N0496            1.000000   0.033      0         0          0.0000    0
C0496            N0496            N0497            1.000000   0.033      0         0          0.0000    0
C0497            N0497            N0498            1.000000   0.033      0         0          0.0000    0
C0498            N0498            N0499            1.000000   0.033      0         0          0.0000    0
C0499            N0499            N0500            1.000000   0.033      0         0          0.0000    0
C0500            N0500            N0501            1.000000   0.033      0         0          0.0000    0
C0501            N0501            N0502            1.000000   0.033      0         0          0.0000    0
C0502            N0502            N0503            1.000000   0.033      0         0          0.0000    0
C0503            N0503            N0504            1.000000   0.033      0         0          0.0000    0
C0504            N0504            N0505            1.000000   0.033      0         0          0.0000    0
C0505            N0505            N0506            1.000000   0.033      0         0          0.0000    0
C0506            N0506            N0507            1.000000   0.033      0         0          0.0000    0
C0507            N0507            N0508            1.000000   0.033      0         0          0.0000    0
C0508            N0508            N0509            1.000000   0.033      0         0          0.0000    0
C0509            N0509            N0510            1.000000   0.033      0         0          0.0000    0
C0510            N0510            N0511            1.000000   0.033      0         0          0.0000    0
C0511            N0511            N0512            1.000000   0.033      0         0          0.0000    0
C0512            N0512            N0513            1.000000   0.033      0         0          0.0000    0
C0513            N0513            N0514            1.000000   0.033      0         0          0.0000    0
C0514            N0514            N0515            1.000000   0.033      0         0          0.0000    0
C0515            N0515            N0516            1.000000   0.033      0         0          0.0000    0
C0516            N0516            N0517            1.000000   0.033      0         0          0.0000    0
C0517            N0517            N0518            1.000000   0.033      0         0          0.0000    0
C0518            N0518            N0519            1.000000   0.033      0         0          0.0000    0
C0519            N0519            N0520            1.000000   0.033      0         0          0.0000    0
C0520            N0520            N0521            1.000000   0.033      0         0          0.0000    0
C0521            N0521            N0522            1.000000   0.033      0         0          0.0000    0
C0522            N0522            N0523            1.000000   0.033      0         0          0.0000    0
C0523            N0523            N0524            1.000000   0.033      0         0          0.0000    0
C0524            N0524            N0525            1.000000   0.033      0         0          0.0000    0
C0525            N0525            N0526            1.000000   0.033      0         0          0.0000    0
C0526            N0526            N0527            1.000000   0.033      0         0          0.0000    0
C0527            N0527            N0528            1.000000   0.033      0         0          0.0000    0
C0528            N0528            N0529            1.000000   0.033      0         0          0.0000    0
C0529            N0529            N0530            1.000000   0.033      0         0          0.0000    0
C0530            N0530            N0531            1.000000   0.033      0         0          0.0000    0
C0531            N0531            N0532            1.000000   0.033      0         0          0.0000    0
C0532            N0532            N0533            1.000000   0.033      0         0          0.0000    0
C0533            N0533            N0534            1.000000   0.033      0         0          0.0000    0
C0534            N0534            N0535            1.000000   0.033      0         0          0.0000    0
C0535            N0535            N0536            1.000000   0.033      0         0          0.0000    0
C0536            N0536            N0537            1.000000   0.033      0         0          0.0000    0
C0537            N0537            N0538            1.000000   0.033      0         0          0.0000    0
C0538            N0538            N0539            1.000000   0.033      0         0          0.0000    0
C0539            N0539            N0540            1.000000   0.033      0         0          0.0000    0
C0540            N0540            N0541            1.000000   0.033      0         0          0.0000    0
C0541            N0541            N0542            1.000000   0.033      0         0          0.0000    0
C0542            N0542            N0543            1.000000   0.033      0         0          0.0000    0
C0543            N0543            N0544            1.000000   0.033      0         0          0.0000    0
C0544            N0544            N0545            1.000000   0.033      0         0          0.0000    0
C0545            N0545            N0546            1.000000   0.033      0         0          0.0000    0
C0546            N0546            N0547            1.000000   0.033      0         0          0.0000    0
C0547            N0547            N0548            1.000000   0.033      0         0          0.0000    0
C0548            N0548            N0549            1.000000   0.033      0         0          0.0000    0
C0549            N0549            N0550            1.000000   0.033      0         0          0.0000    0
C0550            N0550            N0551            1.000000   0.033      0         0          0.0000    0
C0551            N0551            N0552            1.000000   0.033      0         0          0.0000    0
C0552            N0552            N0553            1.000000   0.033      0         0          0.0000    0
C0553            N0553            N0554            1.000000   0.033      0         0          0.0000    0
C0554            N0554            N0555            1.000000   0.033      0         0          0.0000    0
C0555            N0555            N0556            1.000000   0.033      0         0          0.0000    0
C0556            N0556            N0557            1.000000   0.033      0         0          0.0000    0
C0557            N0557            N0558            1.000000   0.033      0         0          0.0000    0
C0558            N0558            N0559            1.000000   0.033      0         0          0.0000    0
C0559            N0559            N0560            1.000000   0.033      0         0          0.0000    0
C0560            N0560            N0561            1.000000   0.033      0         0          0.0000    0
C0561            N0561            N0562            1.000000   0.033      0         0          0.0000    0
C0562            N0562            N0563            1.000000   0.033      0         0          0.0000    0
C0563            N0563            N0564            1.000000   0.033      0         0          0.0000    0
C0564            N0564            N0565            1.000000   0.033      0         0          0.0000    0
C0565            N0565            N0566            1.000000   0.033      0         0          0.0000    0
C0566            N0566            N0567            1.000000   0.033      0         0          0.0000    0
C0567            N0567            N0568            1.000000   0.033      0         0          0.0000    0
C0568            N0568            N0569            1.000000   0.033      0         0          0.0000    0
C0569            N0569            N0570            1.000000   0.033      0         0          0.0000    0
C0570            N0570            N0571            1.000000   0.033      0         0          0.0000    0
C0571            N0571            N0572            1.000000   0.033      0         0          0.0000    0
C0572            N0572            N0573            1.000000   0.033      0         0          0.0000    0
C0573            N0573            N0574            1.000000   0.033      0         0          0.0000    0
C0574            N0574            N0575            1.000000   0.033      0         0          0.0000    0
C0575            N0575            N0576            1.000000   0.033      0         0          0.0000    0
C0576            N0576            N0577            1.000000   0.033      0         0          0.0000    0
C0577            N0577            N0578            1.000000   0.033      0         0          0.0000    0
C0578            N0578            N0579            1.000000   0.033      0         0          0.0000    0
C0579            N0579            N0580            1.000000   0.033      0         0          0.0000    0
C0580            N0580            N0581            1.000000   0.033      0         0          0.0000    0
C0581            N0581            N0582            1.000000   0.033      0         0          0.0000    0
C0582            N0582            N0583            1.000000   0.033      0         0          0.0000    0
C0583            N0583            N0584            1.000000   0.033      0         0          0.0000    0
C0584            N0584            N0585            1.000000   0.033      0         0          0.0000    0
C0585            N0585            N0586            1.000000   0.033      0         0          0.0000    0
C0586            N0586            N0587            1.000000   0.033      0         0          0.0000    0
C0587            N0587            N0588            1.000000   0.033      0         0          0.0000    0
C0588            N0588            N0589            1.000000   0.033      0         0          0.0000    0
C0589            N0589            N0590            1.000000   0.033      0         0          0.0000    0
C0590            N0590            N0591            1.000000   0.033      0         0          0.0000    0
C0591            N0591            N0592            1.000000   0.033      0         0          0.0000    0
C0592            N0592            N0593            1.000000   0.033      0         0          0.0000    0
C0593            N0593            N0594            1.000000   0.033      0         0          0.0000    0
C0594            N0594            N0595            1.000000   0.033      0         0          0.0000    0
C0595            N0595            N0596            1.000000   0.033      0         0          0.0000    0
C0596            N0596            N0597            1.000000   0.033      0         0          0.0000    0
C0597            N0597            N0598            1.000000   0.033      0         0          0.0000    0
C0598            N0598            N0599            1.000000   0.033      0         0          0.0000    0
C0599            N0599            N0600            1.000000   0.033      0         0          0.0000    0
C0600            N0600            N0601            1.000000   0.033      0         0          0.0000    0
C0601            N0601            N0602            1.000000   0.033      0         0          0.0000    0
C0602            N0602            N0603            1.000000   0.033      0         0          0.0000    0
C0603            N0603            N0604            1.000000   0.033      0         0          0.0000    0
C0604            N0604            N0605            1.000000   0.033      0         0          0.0000    0
C0605            N0605            N0606            1.000000   0.033      0         0          0.0000    0
C0606            N0606            N0607            1.000000   0.033      0         0          0.0000    0
C0607            N0607            N0608            1.000000   0.033      0         0          0.0000    0
C0608            N0608            N0609            1.000000   0.033      0         0          0.0000    0
C0609            N0609            N0610            1.000000   0.033      0         0          0.0000    0
C0610            N0610            N0611            1.000000   0.033      0         0          0.0000    0
C0611            N0611            N0612            1.000000   0.033      0         0          0.0000    0
C0612            N0612            N0613            1.000000   0.033      0         0          0.0000    0
C0613            N0613            N0614            1.000000   0.033      0         0          0.0000    0
C0614            N0614            N0615            1.000000   0.033      0         0          0.0000    0
C0615            N0615            N0616            1.000000   0.033      0         0          0.0000    0
C0616            N0616            N0617            1.000000   0.033      0         0          0.0000    0
C0617            N0617            N0618            1.000000   0.033      0         0          0.0000    0
C0618            N0618            N0619            1.000000   0.033      0         0          0.0000    0
C0619            N0619            N0620            1.000000   0.033      0         0          0.0000    0
C0620            N0620            N0621            1.000000   0.033      0         0          0.0000    0
C0621            N0621            N0622            1.000000   0.033      0         0          0.0000    0
C0622            N0622            N0623            1.000000   0.033      0         0          0.0000    0
C0623            N0623            N0624            1.000000   0.033      0         0          0.0000    0
C0624            N0624            N0625            1.000000   0.033      0         0          0.0000    0
C0625            N0625            N0626            1.000000   0.033      0         0          0.0000    0
C0626            N0626            N0627            1.000000   0.033      0         0          0.0000    0
C0627            N0627            N0628            1.000000   0.033      0         0          0.0000    0
C0628            N0628            N0629            1.000000   0.033      0         0          0.0000    0
C0629            N0629            N0630            1.000000   0.033      0         0          0.0000    0
C0630            N0630            N0631            1.000000   0.033      0         0          0.0000    0
C0631            N0631            N0632            1.000000   0.033      0         0          0.0000    0
C0632            N0632            N0633            1.000000   0.033      0         0          0.0000    0
C0633            N0633            N0634            1.000000   0.033      0         0          0.0000    0
C0634            N0634            N0635            1.000000   0.033      0         0          0.0000    0
C0635            N0635            N0636            1.000000   0.033      0         0          0.0000    0
C0636            N0636            N0637            1.000000   0.033      0         0          0.0000    0
C0637            N0637            N0638            1.000000   0.033      0         0          0.0000    0
C0638            N0638            N0639            1.000000   0.033      0         0          0.0000    0
C0639            N0639            N0640            1.000000   0.033      0         0          0.0000    0
C0640            N0640            N0641            1.000000   0.033      0         0          0.0000    0
C0641            N0641            N0642            1.000000   0.033      0         0          0.0000    0
C0642            N0642            N0643            1.000000   0.033      0         0          0.0000    0
C0643            N0643            N0644            1.000000   0.033      0         0          0.0000    0
C0644            N0644            N0645            1.000000   0.033      0         0          0.0000    0
C0645            N0645            N0646            1.000000   0.033      0         0          0.0000    0
C0646            N0646            N0647            1.000000   0.033      0         0          0.0000    0
C0647            N0647            N0648            1.000000   0.033      0         0          0.0000    0
C0648            N0648            N0649            1.000000   0.033      0         0          0.0000    0
C0649            N0649            N0650            1.000000   0.033      0         0          0.0000    0
C0650            N0650            N0651            1.000000   0.033      0         0          0.0000    0
C0651            N0651            N0652            1.000000   0.033      0         0          0.0000    0
C0652            N0652            N0653            1.000000   0.033      0         0          0.0000    0
C0653            N0653            N0654            1.000000   0.033      0         0          0.0000    0
C0654            N0654            N0655            1.000000   0.033      0         0          0.0000    0
C0655            N0655            N0656            1.000000   0.033      0         0          0.0000    0
C0656            N0656            N0657            1.000000   0.033      0         0          0.0000    0
C0657            N0657            N0658            1.000000   0.033      0         0          0.0000    0
C0658            N0658            N0659            1.000000   0.033      0         0          0.0000    0
C0659            N0659            N0660            1.000000   0.033      0         0          0.0000    0
C0660            N0660            N0661            1.000000   0.033      0         0          0.0000    0
C0661            N0661            N0662            1.000000   0.033      0         0          0.0000    0
C0662            N0662            N0663            1.000000   0.033      0         0          0.0000    0
C0663            N0663            N0664            1.000000   0.033      0         0          0.0000    0
C0664            N0664            N0665            1.000000   0.033      0         0          0.0000    0
C0665            N0665            N0666            1.000000   0.033      0         0          0.0000    0
C0666            N0666            N0667            1.000000   0.033      0         0          0.0000    0
C0667            N0667            N0668            1.000000   0.033      0         0          0.0000    0
C0668            N0668            N0669            1.000000   0.033      0         0          0.0000    0
C0669            N0669            N0670            1.000000   0.033      0         0          0.0000    0
C0670            N0670            N0671            1.000000   0.033      0         0          0.0000    0
C0671            N0671            N0672            1.000000   0.033      0         0          0.0000    0
C0672            N0672            N0673            1.000000   0.033      0         0          0.0000    0
C0673            N0673            N0674            1.000000   0.033      0         0          0.0000    0
C0674            N0674            N0675            1.000000   0.033      0         0          0.0000    0
C0675            N0675            N0676            1.000000   0.033      0         0          0.0000    0
C0676            N0676            N0677            1.000000   0.033      0         0          0.0000    0
C0677            N0677            N0678            1.000000   0.033      0         0          0.0000    0
C0678            N0678            N0679            1.000000   0.033      0         0          0.0000    0
C0679            N0679            N0680            1.000000   0.033      0         0          0.0000    0
C0680            N0680            N0681            1.000000   0.033      0         0          0.0000    0
C0681            N0681            N0682            1.000000   0.033      0         0          0.0000    0
C0682            N0682            N0683            1.000000   0.033      0         0          0.0000    0
C0683            N0683            N0684            1.000000   0.033      0         0          0.0000    0
C0684            N0684            N0685            1.000000   0.033      0         0          0.0000    0
C0685            N0685            N0686            1.000000   0.033      0         0          0.0000    0
C0686            N0686            N0687            1.000000   0.033      0         0          0.0000    0
C0687            N0687            N0688            1.000000   0.033      0         0          0.0000    0
C0688            N0688            N0689            1.000000   0.033      0         0          0.0000    0
C0689            N0689            N0690            1.000000   0.033      0         0          0.0000    0
C0690            N0690            N0691            1.000000   0.033      0         0          0.0000    0
C0691            N0691            N0692            1.000000   0.033      0         0          0.0000    0
C0692            N0692            N0693            1.000000   0.033      0         0          0.0000    0
C0693            N0693            N0694            1.000000   0.033      0         0          0.0000    0
C0694            N0694            N0695            1.000000   0.033      0         0          0.0000    0
C0695            N0695            N0696            1.000000   0.033      0         0          0.0000    0
C0696            N0696            N0697            1.000000   0.033      0         0          0.0000    0
C0697            N0697            N0698            1.000000   0.033      0         0          0.0000    0
C0698            N0698            N0699            1.000000   0.033      0         0          0.0000    0
C0699            N0699            N0700            1.000000   0.033      0         0          0.0000    0
C0700            N0700            N0701            1.000000   0.033      0         0          0.0000    0
C0701            N0701            N0702            1.000000   0.033      0         0          0.0000    0
C0702            N0702            N0703            1.000000   0.033      0         0          0.0000    0
C0703            N0703            N0704            1.000000   0.033      0         0          0.0000    0
C0704            N0704            N0705            1.000000   0.033      0         0          0.0000    0
C0705            N0705            N0706            1.000000   0.033      0         0          0.0000    0
C0706            N0706            N0707            1.000000   0.033      0         0          0.0000    0
C0707            N0707            N0708            1.000000   0.033      0         0          0.0000    0
C0708            N0708            N0709            1.000000   0.033      0         0          0.0000    0
C0709            N0709            N0710            1.000000   0.033      0         0          0.0000    0
C0710            N0710            N0711            1.000000   0.033      0         0          0.0000    0
C0711            N0711            N0712            1.000000   0.033      0         0          0.0000    0
C0712            N0712            N0713            1.000000   0.033      0         0          0.0000    0
C0713            N0713            N0714            1.000000   0.033      0         0          0.0000    0
C0714            N0714            N0715            1.000000   0.033      0         0          0.0000    0
C0715            N0715            N0716            1.000000   0.033      0         0          0.0000    0
C0716            N0716            N0717            1.000000   0.033      0         0          0.0000    0
C0717            N0717            N0718            1.000000   0.033      0         0          0.0000    0
C0718            N0718            N0719            1.000000   0.033      0         0          0.0000    0
C0719            N0719            N0720            1.000000   0.033      0         0          0.0000    0
C0720            N0720            N0721            1.000000   0.033      0         0          0.0000    0
C0721            N0721            N0722            1.000000   0.033      0         0          0.0000    0
C0722            N0722            N0723            1.000000   0.033      0         0          0.0000    0
C0723            N0723            N0724            1.000000   0.033      0         0          0.0000    0
C0724            N0724            N0725            1.000000   0.033      0         0          0.0000    0
C0725            N0725            N0726            1.000000   0.033      0         0          0.0000    0
C0726            N0726            N0727            1.000000   0.033      0         0          0.0000    0
C0727            N0727            N0728            1.000000   0.033      0         0          0.0000    0
C0728            N0728            N0729            1.000000   0.033      0         0          0.0000    0
C0729            N0729            N0730            1.000000   0.033      0         0          0.0000    0
C0730            N0730            N0731            1.000000   0.033      0         0          0.0000    0
C0731            N0731            N0732            1.000000   0.033      0         0          0.0000    0
C0732            N0732            N0733            1.000000   0.033      0         0          0.0000    0
C0733            N0733            N0734            1.000000   0.033      0         0          0.0000    0
C0734            N0734            N0735            1.000000   0.033      0         0          0.0000    0
C0735            N0735            N0736            1.000000   0.033      0         0          0.0000    0
C0736            N0736            N0737            1.000000   0.033      0         0          0.0000    0
C0737            N0737            N0738            1.000000   0.033      0         0          0.0000    0
C0738            N0738            N0739            1.000000   0.033      0         0          0.0000    0
C0739            N0739            N0740            1.000000   0.033      0         0          0.0000    0
C0740            N0740            N0741            1.000000   0.033      0         0          0.0000    0
C0741            N0741            N0742            1.000000   0.033      0         0          0.0000    0
C0742            N0742            N0743            1.000000   0.033      0         0          0.0000    0
C0743            N0743            N0744            1.000000   0.033      0         0          0.0000    0
C0744            N0744            N0745            1.000000   0.033      0         0          0.0000    0
C0745            N0745            N0746            1.000000   0.033      0         0          0.0000    0
C0746            N0746            N0747            1.000000   0.033      0         0          0.0000    0
C0747            N0747            N0748            1.000000   0.033      0         0          0.0000    0
C0748            N0748            N0749            1.000000   0.033      0         0          0.0000    0
C0749            N0749            N0750            1.000000   0.033      0         0          0.0000    0
C0750            N0750            N0751            1.000000   0.033      0         0          0.0000    0
C0751            N0751            N0752            1.000000   0.033      0         0          0.0000    0
C0752            N0752            N0753            1.000000   0.033      0         0          0.0000    0
C0753            N0753            N0754            1.000000   0.033      0         0          0.0000    0
C0754            N0754            N0755            1.000000   0.033      0         0          0.0000    0
C0755            N0755            N0756            1.000000   0.033      0         0          0.0000    0
C0756            N0756            N0757            1.000000   0.033      0         0          0.0000    0
C0757            N0757            N0758            1.000000   0.033      0         0          0.0000    0
C0758            N0758            N0759            1.000000   0.033      0         0          0.0000    0
C0759            N0759            N0760            1.000000   0.033      0         0          0.0000    0
C0760            N0760            N0761            1.000000   0.033      0         0          0.0000    0
C0761            N0761            N0762            1.000000   0.033      0         0          0.0000    0
C0762            N0762            N0763            1.000000   0.033      0         0          0.0000    0
C0763            N0763            N0764            1.000000   0.033      0         0          0.0000    0
C0764            N0764            N0765            1.000000   0.033      0         0          0.0000    0
C0765            N0765            N0766            1.000000   0.033      0         0          0.0000    0
C0766            N0766            N0767            1.000000   0.033      0         0          0.0000    0
C0767            N0767            N0768            1.000000   0.033      0         0          0.0000    0
C0768            N0768            N0769            1.000000   0.033      0         0          0.0000    0
C0769            N0769            N0770            1.000000   0.033      0         0          0.0000    0
C0770            N0770            N0771            1.000000   0.033      0         0          0.0000    0
C0771            N0771            N0772            1.000000   0.033      0         0          0.0000    0
C0772            N0772            N0773            1.000000   0.033      0         0          0.0000    0
C0773            N0773            N0774            1.000000   0.033      0         0          0.0000    0
C0774            N0774            N0775            1.000000   0.033      0         0          0.0000    0
C0775            N0775            N0776            1.000000   0.033      0         0          0.0000    0
C0776            N0776            N0777            1.000000   0.033      0         0          0.0000    0
C0777            N0777            N0778            1.000000   0.033      0         0          0.0000    0
C0778            N0778            N0779            1.000000   0.033      0         0          0.0000    0
C0779            N0779            N0780            1.000000   0.033      0         0          0.0000    0
C0780            N0780            N0781            1.000000   0.033      0         0          0.0000    0
C0781            N0781            N0782            1.000000   0.033      0         0          0.0000    0
C0782            N0782            N0783            1.000000   0.033      0         0          0.0000    0
C0783            N0783            N0784            1.000000   0.033      0         0          0.0000    0
C0784            N0784            N0785            1.000000   0.033      0         0          0.0000    0
C0785            N0785            N0786            1.000000   0.033      0         0          0.0000    0
C0786            N0786            N0787            1.000000   0.033      0         0          0.0000    0
C0787            N0787            N0788            1.000000   0.033      0         0          0.0000    0
C0788            N0788            N0789            1.000000   0.033      0         0          0.0000    0
C0789            N0789            N0790            1.000000   0.033      0         0          0.0000    0
C0790            N0790            N0791            1.000000   0.033      0         0          0.0000    0
C0791            N0791            N0792            1.000000   0.033      0         0          0.0000    0
C0792            N0792            N0793            1.000000   0.033      0         0          0.0000    0
C0793            N0793            N0794            1.000000   0.033      0         0          0.0000    0
C0794            N0794            N0795            1.000000   0.033      0         0          0.0000    0
C0795            N0795            N0796            1.000000   0.033      0         0          0.0000    0
C0796            N0796            N0797            1.000000   0.033      0         0          0.0000    0
C0797            N0797            N0798            1.000000   0.033      0         0          0.0000    0
C0798            N0798            N0799            1.000000   0.033      0         0          0.0000    0
C0799            N0799            N0800            1.000000   0.033      0         0          0.0000    0
C0800            N0800            N0801            1.000000   0.033      0         0          0.0000    0
C0801            N0801            N0802            1.000000   0.033      0         0          0.0000    0
C0802            N0802            N0803            1.000000   0.033      0         0          0.0000    0
C0803            N0803            N0804            1.000000   0.033      0         0          0.0000    0
C0804            N0804            N0805            1.000000   0.033      0         0          0.0000    0
C0805            N0805            N0806            1.000000   0.033      0         0          0.0000    0
C0806            N0806            N0807            1.000000   0.033      0         0          0.0000    0
C0807            N0807            N0808            1.000000   0.033      0         0          0.0000    0
C0808            N0808            N0809            1.000000   0.033      0         0          0.0000    0
C0809            N0809            N0810            1.000000   0.033      0         0          0.0000    0
C0810            N0810            N0811            1.000000   0.033      0         0          0.0000    0
C0811            N0811            N0812            1.000000   0.033      0         0          0.0000    0
C0812            N0812            N0813            1.000000   0.033      0         0          0.0000    0
C0813            N0813            N0814            1.000000   0.033      0         0          0.0000    0
C0814            N0814            N0815            1.000000   0.033      0         0          0.0000    0
C0815            N0815            N0816            1.000000   0.033      0         0          0.0000    0
C0816            N0816            N0817            1.000000   0.033      0         0          0.0000    0
C0817            N0817            N0818            1.000000   0.033      0         0          0.0000    0
C0818            N0818            N0819            1.000000   0.033      0         0          0.0000    0
C0819            N0819            N0820            1.000000   0.033      0         0          0.0000    0
C0820            N0820            N0821            1.000000   0.033      0         0          0.0000    0
C0821            N0821            N0822            1.000000   0.033      0         0          0.0000    0
C0822            N0822            N0823            1.000000   0.033      0         0          0.0000    0
C0823            N0823            N0824            1.000000   0.033      0         0          0.0000    0
C0824            N0824            N0825            1.000000   0.033      0         0          0.0000    0
C0825            N0825            N0826            1.000000   0.033      0         0          0.0000    0
C0826            N0826            N0827            1.000000   0.033      0         0          0.0000    0
C0827            N0827            N0828            1.000000   0.033      0         0          0.0000    0
C0828            N0828            N0829            1.000000   0.033      0         0          0.0000    0
C0829            N0829            N0830            1.000000   0.033      0         0          0.0000    0
C0830            N0830            N0831            1.000000   0.033      0         0          0.0000    0
C0831            N0831            N0832            1.000000   0.033      0         0          0.0000    0
C0832            N0832            N0833            1.000000   0.033      0         0          0.0000    0
C0833            N0833            N0834            1.000000   0.033      0         0          0.0000    0
C0834            N0834            N0835            1.000000   0.033      0         0          0.0000    0
C0835            N0835            N0836            1.000000   0.033      0         0          0.0000    0
C0836            N0836            N0837            1.000000   0.033      0         0          0.0000    0
C0837            N0837            N0838            1.000000   0.033      0         0          0.0000    0
C0838            N0838            N0839            1.000000   0.033      0         0          0.0000    0
C0839            N0839            N0840            1.000000   0.033      0         0          0.0000    0
C0840            N0840            N0841            1.000000   0.033      0         0          0.0000    0
C0841            N0841            N0842            1.000000   0.033      0         0          0.0000    0
C0842            N0842            N0843            1.000000   0.033      0         0          0.0000    0
C0843            N0843            N0844            1.000000   0.033      0         0          0.0000    0
C0844            N0844            N0845            1.000000   0.033      0         0          0.0000    0
C0845            N0845            N0846            1.000000   0.033      0         0          0.0000    0
C0846            N0846            N0847            1.000000   0.033      0         0          0.0000    0
C0847            N0847            N0848            1.000000   0.033      0         0          0.0000    0
C0848            N0848            N0849            1.000000   0.033      0         0          0.0000    0
C0849            N0849            N0850            1.000000   0.033      0         0          0.0000    0
C0850            N0850            N0851            1.000000   0.033      0         0          0.0000    0
C0851            N0851            N0852            1.000000   0.033      0         0          0.0000    0
C0852            N0852            N0853            1.000000   0.033      0         0          0.0000    0
C0853            N0853            N0854            1.000000   0.033      0         0          0.0000    0
C0854            N0854            N0855            1.000000   0.033      0         0          0.0000    0
C0855            N0855            N0856            1.000000   0.033      0         0          0.0000    0
C0856            N0856            N0857            1.000000   0.033      0         0          0.0000    0
C0857            N0857            N0858            1.000000   0.033      0         0          0.0000    0
C0858            N0858            N0859            1.000000   0.033      0         0          0.0000    0
C0859            N0859            N0860            1.000000   0.033      0         0          0.0000    0
C0860            N0860            N0861            1.000000   0.033      0         0          0.0000    0
C0861            N0861            N0862            1.000000   0.033      0         0          0.0000    0
C0862            N0862            N0863            1.000000   0.033      0         0          0.0000    0
C0863            N0863            N0864            1.000000   0.033      0         0          0.0000    0
C0864            N0864            N0865            1.000000   0.033      0         0          0.0000    0
C0865            N0865            N0866            1.000000   0.033      0         0          0.0000    0
C0866            N0866            N0867            1.000000   0.033      0         0          0.0000    0
C0867            N0867            N0868            1.000000   0.033      0         0          0.0000    0
C0868            N0868            N0869            1.000000   0.033      0         0          0.0000    0
C0869            N0869            N0870            1.000000   0.033      0         0          0.0000    0
C0870            N0870            N0871            1.000000   0.033      0         0          0.0000    0
C0871            N0871            N0872            1.000000   0.033      0         0          0.0000    0
C0872            N0872            N0873            1.000000   0.033      0         0          0.0000    0
C0873            N0873            N0874            1.000000   0.033      0         0          0.0000    0
C0874            N0874            N0875            1.000000   0.033      0         0          0.0000    0
C0875            N0875            N0876            1.000000   0.033      0         0          0.0000    0
C0876            N0876            N0877            1.000000   0.033      0         0          0.0000    0
C0877            N0877            N0878            1.000000   0.033      0         0          0.0000    0
C0878            N0878            N0879            1.000000   0.033      0         0          0.0000    0
C0879            N0879            N0880            1.000000   0.033      0         0          0.0000    0
C0880            N0880            N0881            1.000000   0.033      0         0          0.0000    0
C0881            N0881            N0882            1.000000   0.033      0         0          0.0000    0
C0882            N0882            N0883            1.000000   0.033      0         0          0.0000    0
C0883            N0883            N0884            1.000000   0.033      0         0          0.0000    0
C0884            N0884            N0885            1.000000   0.033      0         0          0.0000    0
C0885            N0885            N0886            1.000000   0.033      0         0          0.0000    0
C0886            N0886            N0887            1.000000   0.033      0         0          0.0000    0
C0887            N0887            N0888            1.000000   0.033      0         0          0.0000    0
C0888            N0888            N0889            1.000000   0.033      0         0          0.0000    0
C0889            N0889            N0890            1.000000   0.033      0         0          0.0000    0
C0890            N0890            N0891            1.000000   0.033      0         0          0.0000    0
C0891            N0891            N0892            1.000000   0.033      0         0          0.0000    0
C0892            N0892            N0893            1.000000   0.033      0         0          0.0000    0
C0893            N0893            N0894            1.000000   0.033      0         0          0.0000    0
C0894            N0894            N0895            1.000000   0.033      0         0          0.0000    0
C0895            N0895            N0896            1.000000   0.033      0         0          0.0000    0
C0896            N0896            N0897            1.000000   0.033      0         0          0.0000    0
C0897            N0897            N0898            1.000000   0.033      0         0          0.0000    0
C0898            N0898            N0899            1.000000   0.033      0         0          0.0000    0
C0899            N0899            N0900            1.000000   0.033      0         0          0.0000    0
C0900            N0900            N0901            1.000000   0.033      0         0          0.0000    0
C0901            N0901            N0902            1.000000   0.033      0         0          0.0000    0
C0902            N0902            N0903            1.000000   0.033      0         0          0.0000    0
C0903            N0903            N0904            1.000000   0.033      0         0          0.0000    0
C0904            N0904            N0905            1.000000   0.033      0         0          0.0000    0
C0905            N0905            N0906            1.000000   0.033      0         0          0.0000    0
C0906            N0906            N0907            1.000000   0.033      0         0          0.0000    0
C0907            N0907            N0908            1.000000   0.033      0         0          0.0000    0
C0908            N0908            N0909            1.000000   0.033      0         0          0.0000    0
C0909            N0909            N0910            1.000000   0.033      0         0          0.0000    0
C0910            N0910            N0911            1.000000   0.033      0         0          0.0000    0
C0911            N0911            N0912            1.000000   0.033      0         0          0.0000    0
C0912            N0912            N0913            1.000000   0.033      0         0          0.0000    0
C0913            N0913            N0914            1.000000   0.033      0         0          0.0000    0
C0914            N0914            N0915            1.000000   0.033      0         0          0.0000    0
C0915            N0915            N0916            1.000000   0.033      0         0          0.0000    0
C0916            N0916            N0917            1.000000   0.033      0         0          0.0000    0
C0917            N0917            N0918            1.000000   0.033      0         0          0.0000    0
C0918            N0918            N0919            1.000000   0.033      0         0          0.0000    0
C0919            N0919            N0920            1.000000   0.033      0         0          0.0000    0
C0920            N0920            N0921            1.000000   0.033      0         0          0.0000    0
C0921            N0921            N0922            1.000000   0.033      0         0          0.0000    0
C0922            N0922            N0923            1.000000   0.033      0         0          0.0000    0
C0923            N0923            N0924            1.000000   0.033      0         0          0.0000    0
C0924            N0924            N0925            1.000000   0.033      0         0          0.0000    0
C0925            N0925            N0926            1.000000   0.033      0         0          0.0000    0
C0926            N0926            N0927            1.000000   0.033      0         0          0.0000    0
C0927            N0927            N0928            1.000000   0.033      0         0          0.0000    0
C0928            N0928            N0929            1.000000   0.033      0         0          0.0000    0
C0929            N0929            N0930            1.000000   0.033      0         0          0.0000    0
C0930            N0930            N0931            1.000000   0.033      0         0          0.0000    0
C0931            N0931            N0932            1.000000   0.033      0         0          0.0000    0
C0932            N0932            N0933            1.000000   0.033      0         0          0.0000    0
C0933            N0933            N0934            1.000000   0.033      0         0          0.0000    0
C0934            N0934            N0935            1.000000   0.033      0         0          0.0000    0
C0935            N0935            N0936            1.000000   0.033      0         0          0.0000    0
C0936            N0936            N0937            1.000000   0.033      0         0          0.0000    0
C0937            N0937            N0938            1.000000   0.033      0         0          0.0000    0
C0938            N0938            N0939            1.000000   0.033      0         0          0.0000    0
C0939            N0939            N0940            1.000000   0.033      0         0          0.0000    0
C0940            N0940            N0941            1.000000   0.033      0         0          0.0000    0
C0941            N0941            N0942            1.000000   0.033      0         0          0.0000    0
C0942            N0942            N0943            1.000000   0.033      0         0          0.0000    0
C0943            N0943            N0944            1.000000   0.033      0         0          0.0000    0
C0944            N0944            N0945            1.000000   0.033      0         0          0.0000    0
C0945            N0945            N0946            1.000000   0.033      0         0          0.0000    0
C0946            N0946            N0947            1.000000   0.033      0         0          0.0000    0
C0947            N0947            N0948            1.000000   0.033      0         0          0.0000    0
C0948            N0948            N0949            1.000000   0.033      0         0          0.0000    0
C0949            N0949            N0950            1.000000   0.033      0         0          0.0000    0
C0950            N0950            N0951            1.000000   0.033      0         0          0.0000    0
C0951            N0951            N0952            1.000000   0.033      0         0          0.0000    0
C0952            N0952            N0953            1.000000   0.033      0         0          0.0000    0
C0953            N0953            N0954            1.000000   0.033      0         0          0.0000    0
C0954            N0954            N0955            1.000000   0.033      0         0          0.0000    0
C0955            N0955            N0956            1.000000   0.033      0         0          0.0000    0
C0956            N0956            N0957            1.000000   0.033      0         0          0.0000    0
C0957            N0957            N0958            1.000000   0.033      0         0          0.0000    0
C0958            N0958            N0959            1.000000   0.033      0         0          0.0000    0
C0959            N0959            N0960            1.000000   0.033      0         0          0.0000    0
C0960            N0960            N0961            1.000000   0.033      0         0          0.0000    0
C0961            N0961            N0962            1.000000   0.033      0         0          0.0000    0
C0962            N0962            N0963            1.000000   0.033      0         0          0.0000    0
C0963            N0963            N0964            1.000000   0.033      0         0          0.0000    0
C0964            N0964            N0965            1.000000   0.033      0         0          0.0000    0
C0965            N0965            N0966            1.000000   0.033      0         0          0.0000    0
C0966            N0966            N0967            1.000000   0.033      0         0          0.0000    0
C0967            N0967            N0968            1.000000   0.033      0         0          0.0000    0
C0968            N0968            N0969            1.000000   0.033      0         0          0.0000    0
C0969            N0969            N0970            1.000000   0.033      0         0          0.0000    0
C0970            N0970            N0971            1.000000   0.033      0         0          0.0000    0
C0971            N0971            N0972            1.000000   0.033      0         0          0.0000    0
C0972            N0972            N0973            1.000000   0.033      0         0          0.0000    0
C0973            N0973            N0974            1.000000   0.033      0         0          0.0000    0
C0974            N0974            N0975            1.000000   0.033      0         0          0.0000    0
C0975            N0975            N0976            1.000000   0.033      0         0          0.0000    0
C0976            N0976            N0977            1.000000   0.033      0         0          0.0000    0
C0977            N0977            N0978            1.000000   0.033      0         0          0.0000    0
C0978            N0978            N0979            1.000000   0.033      0         0          0.0000    0
C0979            N0979            N0980            1.000000   0.033      0         0          0.0000    0
C0980            N0980            N0981            1.000000   0.033      0         0          0.0000    0
C0981            N0981            N0982            1.000000   0.033      0         0          0.0000    0
C0982            N0982            N0983            1.000000   0.033      0         0          0.0000    0
C0983            N0983            N0984            1.000000   0.033      0         0          0.0000    0
C0984            N0984            N0985            1.000000   0.033      0         0          0.0000    0
C0985            N0985            N0986            1.000000   0.033      0         0          0.0000    0
C0986            N0986            N0987            1.000000   0.033      0         0          0.0000    0
C0987            N0987            N0988            1.000000   0.033      0         0          0.0000    0
C0988            N0988            N0989            1.000000   0.033      0         0          0.0000    0
C0989            N0989            N0990            1.000000   0.033      0         0          0.0000    0
C0990            N0990            N0991            1.000000   0.033      0         0          0.0000    0
C0991            N0991            N0992            1.000000   0.033      0         0          0.0000    0
C0992            N0992            N0993            1.000000   0.033      0         0          0.0000    0
C0993            N0993            N0994            1.000000   0.033      0         0          0.0000    0
C0994            N0994            N0995            1.000000   0.033      0         0          0.0000    0
C0995            N0995            N0996            1.000000   0.033      0         0          0.0000    0
C0996            N0996            N0997            1.000000   0.033      0         0          0.0000    0
C0997            N0997            N0998            1.000000   0.033      0         0          0.0000    0
C0998            N0998            N0999            1.000000   0.033      0         0          0.0000    0
C0999            N0999            N1000            1.000000   0.033      0         0          0.0000    0

[XSECTIONS]
;;Link           Shape        Geom1     Geom2     Geom3  Geom4  Barrels
C0000            RECT_OPEN    7.917     500.000   0      0      1
C0001            RECT_OPEN    7.917     500.000   0      0      1
C0002            RECT_OPEN    7.917     500.000   0      0      1
C0003            RECT_OPEN    7.917     500.000   0      0      1
C0004            RECT_OPEN    7.917     500.000   0      0      1
C0005            RECT_OPEN    7.917     500.000   0      0      1
C0006            RECT_OPEN    7.917     500.000   0      0      1
C0007            RECT_OPEN    7.917     500.000   0      0      1
C0008            RECT_OPEN    7.917     500.000   0      0      1
C0009            RECT_OPEN    7.917     500.000   0      0      1
C0010            RECT_OPEN    7.917     500.000   0      0      1
C0011            RECT_OPEN    7.917     500.000   0      0      1
C0012            RECT_OPEN    7.917     500.000   0      0      1
C0013            RECT_OPEN    7.917     500.000   0      0      1
C0014            RECT_OPEN    7.917     500.000   0      0      1
C0015            RECT_OPEN    7.917     500.000   0      0      1
C0016            RECT_OPEN    7.917     500.000   0      0      1
C0017            RECT_OPEN    7.917     500.000   0      0      1
C0018            RECT_OPEN    7.917     500.000   0      0      1
C0019            RECT_OPEN    7.917     500.000   0      0      1
C0020            RECT_OPEN    7.917     500.000   0      0      1
C0021            RECT_OPEN    7.917     500.000   0      0      1
C0022            RECT_OPEN    7.917     500.000   0      0      1
C0023            RECT_OPEN    7.917     500.000   0      0      1
C0024            RECT_OPEN    7.917     500.000   0      0      1
C0025            RECT_OPEN    7.917     500.000   0      0      1
C0026            RECT_OPEN    7.917     500.000   0      0      1
C0027            RECT_OPEN    7.917     500.000   0      0      1
C0028            RECT_OPEN    7.917     500.000   0      0      1
C0029            RECT_OPEN    7.917     500.000   0      0      1
C0030            RECT_OPEN    7.917     500.000   0      0      1
C0031            RECT_OPEN    7.917     500.000   0      0      1
C0032            RECT_OPEN    7.917     500.000   0      0      1
C0033            RECT_OPEN    7.917     500.000   0      0      1
C0034            RECT_OPEN    7.917     500.000   0      0      1
C0035            RECT_OPEN    7.917     500.000   0      0      1
C0036            RECT_OPEN    7.917     500.000   0      0      1
C0037            RECT_OPEN    7.917     500.000   0      0      1
C0038            RECT_OPEN    7.917     500.000   0      0      1
C0039            RECT_OPEN    7.917     500.000   0      0      1
C0040            RECT_OPEN    7.917     500.000   0      0      1
C0041            RECT_OPEN    7.917     500.000   0      0      1
C0042            RECT_OPEN    7.917     500.000   0      0      1
C0043            RECT_OPEN    7.917     500.000   0      0      1
C0044            RECT_OPEN    7.917     500.000   0      0      1
C0045            RECT_OPEN    7.917     500.000   0      0      1
C0046            RECT_OPEN    7.917     500.000   0      0      1
C0047            RECT_OPEN    7.917     500.000   0      0      1
C0048            RECT_OPEN    7.917     500.000   0      0      1
C0049            RECT_OPEN    7.917     500.000   0      0      1
C0050            RECT_OPEN    7.917     500.000   0      0      1
C0051            RECT_OPEN    7.917     500.000   0      0      1
C0052            RECT_OPEN    7.917     500.000   0      0      1
C0053            RECT_OPEN    7.917     500.000   0      0      1
C0054            RECT_OPEN    7.917     500.000   0      0      1
C0055            RECT_OPEN    7.917     500.000   0      0      1
C0056            RECT_OPEN    7.917     500.000   0      0      1
C0057            RECT_OPEN    7.917     500.000   0      0      1
C0058            RECT_OPEN    7.917     500.000   0      0      1
C0059            RECT_OPEN    7.917     500.000   0      0      1
C0060            RECT_OPEN    7.917     500.000   0      0      1
C0061            RECT_OPEN    7.917     500.000   0      0      1
C0062            RECT_OPEN    7.917     500.000   0      0      1
C0063            RECT_OPEN    7.917     500.000   0      0      1
C0064            RECT_OPEN    7.917     500.000   0      0      1
C0065            RECT_OPEN    7.917     500.000   0      0      1
C0066            RECT_OPEN    7.917     500.000   0      0      1
C0067            RECT_OPEN    7.917     500.000   0      0      1
C0068            RECT_OPEN    7.917     500.000   0      0      1
C0069            RECT_OPEN    7.917     500.000   0      0      1
C0070            RECT_OPEN    7.917     500.000   0      0      1
C0071            RECT_OPEN    7.917     500.000   0      0      1
C0072            RECT_OPEN    7.917     500.000   0      0      1
C0073            RECT_OPEN    7.917     500.000   0      0      1
C0074            RECT_OPEN    7.917     500.000   0      0      1
C0075            RECT_OPEN    7.917     500.000   0      0      1
C0076            RECT_OPEN    7.917     500.000   0      0      1
C0077            RECT_OPEN    7.917     500.000   0      0      1
C0078            RECT_OPEN    7.917     500.000   0      0      1
C0079            RECT_OPEN    7.917     500.000   0      0      1
C0080            RECT_OPEN    7.917     500.000   0      0      1
C0081            RECT_OPEN    7.917     500.000   0      0      1
C0082            RECT_OPEN    7.917     500.000   0      0      1
C0083            RECT_OPEN    7.917     500.000   0      0      1
C0084            RECT_OPEN    7.917     500.000   0      0      1
C0085            RECT_OPEN    7.917     500.000   0      0      1
C0086            RECT_OPEN    7.917     500.000   0      0      1
C0087            RECT_OPEN    7.917     500.000   0      0      1
C0088            RECT_OPEN    7.917     500.000   0      0      1
C0089            RECT_OPEN    7.917     500.000   0      0      1
C0090            RECT_OPEN    7.917     500.000   0      0      1
C0091            RECT_OPEN    7.917     500.000   0      0      1
C0092            RECT_OPEN    7.917     500.000   0      0      1
C0093            RECT_OPEN    7.917     500.000   0      0      1
C0094            RECT_OPEN    7.917     500.000   0      0      1
C0095            RECT_OPEN    7.917     500.000   0      0      1
C0096            RECT_OPEN    7.917     500.000   0      0      1
C0097            RECT_OPEN    7.917     500.000   0      0      1
C0098            RECT_OPEN    7.917     500.000   0      0      1
C0099            RECT_OPEN    7.917     500.000   0      0      1
C0100            RECT_OPEN    7.917     500.000   0      0      1
C0101            RECT_OPEN    7.917     500.000   0      0      1
C0102            RECT_OPEN    7.917     500.000   0      0      1
C0103            RECT_OPEN    7.917     500.000   0      0      1
C0104            RECT_OPEN    7.917     500.000   0      0      1
C0105            RECT_OPEN    7.917     500.000   0      0      1
C0106            RECT_OPEN    7.917     500.000   0      0      1
C0107            RECT_OPEN    7.917     500.000   0      0      1
C0108            RECT_OPEN    7.917     500.000   0      0      1
C0109            RECT_OPEN    7.917     500.000   0      0      1
C0110            RECT_OPEN    7.917     500.000   0      0      1
C0111            RECT_OPEN    7.917     500.000   0      0      1
C0112            RECT_OPEN    7.917     500.000   0      0      1
C0113            RECT_OPEN    7.917     500.000   0      0      1
C0114            RECT_OPEN    7.917     500.000   0      0      1
C0115            RECT_OPEN    7.917     500.000   0      0      1
C0116            RECT_OPEN    7.917     500.000   0      0      1
C0117            RECT_OPEN    7.917     500.000   0      0      1
C0118            RECT_OPEN    7.917     500.000   0      0      1
C0119            RECT_OPEN    7.917     500.000   0      0      1
C0120            RECT_OPEN    7.917     500.000   0      0      1
C0121            RECT_OPEN    7.917     500.000   0      0      1
C0122            RECT_OPEN    7.917     500.000   0      0      1
C0123            RECT_OPEN    7.917     500.000   0      0      1
C0124            RECT_OPEN    7.917     500.000   0      0      1
C0125            RECT_OPEN    7.917     500.000   0      0      1
C0126            RECT_OPEN    7.917     500.000   0      0      1
C0127            RECT_OPEN    7.917     500.000   0      0      1
C0128            RECT_OPEN    7.917     500.000   0      0      1
C0129            RECT_OPEN    7.917     500.000   0      0      1
C0130            RECT_OPEN    7.917     500.000   0      0      1
C0131            RECT_OPEN    7.917     500.000   0      0      1
C0132            RECT_OPEN    7.917     500.000   0      0      1
C0133            RECT_OPEN    7.917     500.000   0      0      1
C0134            RECT_OPEN    7.917     500.000   0      0      1
C0135            RECT_OPEN    7.917     500.000   0      0      1
C0136            RECT_OPEN    7.917     500.000   0      0      1
C0137            RECT_OPEN    7.917     500.000   0      0      1
C0138            RECT_OPEN    7.917     500.000   0      0      1
C0139            RECT_OPEN    7.917     500.000   0      0      1
C0140            RECT_OPEN    7.917     500.000   0      0      1
C0141            RECT_OPEN    7.917     500.000   0      0      1
C0142            RECT_OPEN    7.917     500.000   0      0      1
C0143            RECT_OPEN    7.917     500.000   0      0      1
C0144            RECT_OPEN    7.917     500.000   0      0      1
C0145            RECT_OPEN    7.917     500.000   0      0      1
C0146            RECT_OPEN    7.917     500.000   0      0      1
C0147            RECT_OPEN    7.917     500.000   0      0      1
C0148            RECT_OPEN    7.917     500.000   0      0      1
C0149            RECT_OPEN    7.917     500.000   0      0      1
C0150            RECT_OPEN    7.917     500.000   0      0      1
C0151            RECT_OPEN    7.917     500.000   0      0      1
C0152            RECT_OPEN    7.917     500.000   0      0      1
C0153            RECT_OPEN    7.917     500.000   0      0      1
C0154            RECT_OPEN    7.917     500.000   0      0      1
C0155            RECT_OPEN    7.917     500.000   0      0      1
C0156            RECT_OPEN    7.917     500.000   0      0      1
C0157            RECT_OPEN    7.917     500.000   0      0      1
C0158            RECT_OPEN    7.917     500.000   0      0      1
C0159            RECT_OPEN    7.917     500.000   0      0      1
C0160            RECT_OPEN    7.917     500.000   0      0      1
C0161            RECT_OPEN    7.917     500.000   0      0      1
C0162            RECT_OPEN    7.917     500.000   0      0      1
C0163            RECT_OPEN    7.917     500.000   0      0      1
C0164            RECT_OPEN    7.917     500.000   0      0      1
C0165            RECT_OPEN    7.917     500.000   0      0      1
C0166            RECT_OPEN    7.917     500.000   0      0      1
C0167            RECT_OPEN    7.917     500.000   0      0      1
C0168            RECT_OPEN    7.917     500.000   0      0      1
C0169            RECT_OPEN    7.917     500.000   0      0      1
C0170            RECT_OPEN    7.917     500.000   0      0      1
C0171            RECT_OPEN    7.917     500.000   0      0      1
C0172            RECT_OPEN    7.917     500.000   0      0      1
C0173            RECT_OPEN    7.917     500.000   0      0      1
C0174            RECT_OPEN    7.917     500.000   0      0      1
C0175            RECT_OPEN    7.917     500.000   0      0      1
C0176            RECT_OPEN    7.917     500.000   0      0      1
C0177            RECT_OPEN    7.917     500.000   0      0      1
C0178            RECT_OPEN    7.917     500.000   0      0      1
C0179            RECT_OPEN    7.917     500.000   0      0      1
C0180            RECT_OPEN    7.917     500.000   0      0      1
C0181            RECT_OPEN    7.917     500.000   0      0      1
C0182            RECT_OPEN    7.917     500.000   0      0      1
C0183            RECT_OPEN    7.917     500.000   0      0      1
C0184            RECT_OPEN    7.917     500.000   0      0      1
C0185            RECT_OPEN    7.917     500.000   0      0      1
C0186            RECT_OPEN    7.917     500.000   0      0      1
C0187            RECT_OPEN    7.917     500.000   0      0      1
C0188            RECT_OPEN    7.917     500.000   0      0      1
C0189            RECT_OPEN    7.917     500.000   0      0      1
C0190            RECT_OPEN    7.917     500.000   0      0      1
C0191            RECT_OPEN    7.917     500.000   0      0      1
C0192            RECT_OPEN    7.917     500.000   0      0      1
C0193            RECT_OPEN    7.917     500.000   0      0      1
C0194            RECT_OPEN    7.917     500.000   0      0      1
C0195            RECT_OPEN    7.917     500.000   0      0      1
C0196            RECT_OPEN    7.917     500.000   0      0      1
C0197            RECT_OPEN    7.917     500.000   0      0      1
C0198            RECT_OPEN    7.917     500.000   0      0      1
C0199            RECT_OPEN    7.917     500.000   0      0      1
C0200            RECT_OPEN    7.917     500.000   0      0      1
C0201            RECT_OPEN    7.917     500.000   0      0      1
C0202            RECT_OPEN    7.917     500.000   0      0      1
C0203            RECT_OPEN    7.917     500.000   0      0      1
C0204            RECT_OPEN    7.917     500.000   0      0      1
C0205            RECT_OPEN    7.917     500.000   0      0      1
C0206            RECT_OPEN    7.917     500.000   0      0      1
C0207            RECT_OPEN    7.917     500.000   0      0      1
C0208            RECT_OPEN    7.917     500.000   0      0      1
C0209            RECT_OPEN    7.917     500.000   0      0      1
C0210            RECT_OPEN    7.917     500.000   0      0      1
C0211            RECT_OPEN    7.917     500.000   0      0      1
C0212            RECT_OPEN    7.917     500.000   0      0      1
C0213            RECT_OPEN    7.917     500.000   0      0      1
C0214            RECT_OPEN    7.917     500.000   0      0      1
C0215            RECT_OPEN    7.917     500.000   0      0      1
C0216            RECT_OPEN    7.917     500.000   0      0      1
C0217            RECT_OPEN    7.917     500.000   0      0      1
C0218            RECT_OPEN    7.917     500.000   0      0      1
C0219            RECT_OPEN    7.917     500.000   0      0      1
C0220            RECT_OPEN    7.917     500.000   0      0      1
C0221            RECT_OPEN    7.917     500.000   0      0      1
C0222            RECT_OPEN    7.917     500.000   0      0      1
C0223            RECT_OPEN    7.917     500.000   0      0      1
C0224            RECT_OPEN    7.917     500.000   0      0      1
C0225            RECT_OPEN    7.917     500.000   0      0      1
C0226            RECT_OPEN    7.917     500.000   0      0      1
C0227            RECT_OPEN    7.917     500.000   0      0      1
C0228            RECT_OPEN    7.917     500.000   0      0      1
C0229            RECT_OPEN    7.917     500.000   0      0      1
C0230            RECT_OPEN    7.917     500.000   0      0      1
C0231            RECT_OPEN    7.917     500.000   0      0      1
C0232            RECT_OPEN    7.917     500.000   0      0      1
C0233            RECT_OPEN    7.917     500.000   0      0      1
C0234            RECT_OPEN    7.917     500.000   0      0      1
C0235            RECT_OPEN    7.917     500.000   0      0      1
C0236            RECT_OPEN    7.917     500.000   0      0      1
C0237            RECT_OPEN    7.917     500.000   0      0      1
C0238            RECT_OPEN    7.917     500.000   0      0      1
C0239            RECT_OPEN    7.917     500.000   0      0      1
C0240            RECT_OPEN    7.917     500.000   0      0      1
C0241            RECT_OPEN    7.917     500.000   0      0      1
C0242            RECT_OPEN    7.917     500.000   0      0      1
C0243            RECT_OPEN    7.917     500.000   0      0      1
C0244            RECT_OPEN    7.917     500.000   0      0      1
C0245            RECT_OPEN    7.917     500.000   0      0      1
C0246            RECT_OPEN    7.917     500.000   0      0      1
C0247            RECT_OPEN    7.917     500.000   0      0      1
C0248            RECT_OPEN    7.917     500.000   0      0      1
C0249            RECT_OPEN    7.917     500.000   0      0      1
C0250            RECT_OPEN    7.917     500.000   0      0      1
C0251            RECT_OPEN    7.917     500.000   0      0      1
C0252            RECT_OPEN    7.917     500.000   0      0      1
C0253            RECT_OPEN    7.917     500.000   0      0      1
C0254            RECT_OPEN    7.917     500.000   0      0      1
C0255            RECT_OPEN    7.917     500.000   0      0      1
C0256            RECT_OPEN    7.917     500.000   0      0      1
C0257            RECT_OPEN    7.917     500.000   0      0      1
C0258            RECT_OPEN    7.917     500.000   0      0      1
C0259            RECT_OPEN    7.917     500.000   0      0      1
C0260            RECT_OPEN    7.917     500.000   0      0      1
C0261            RECT_OPEN    7.917     500.000   0      0      1
C0262            RECT_OPEN    7.917     500.000   0      0      1
C0263            RECT_OPEN    7.917     500.000   0      0      1
C0264            RECT_OPEN    7.917     500.000   0      0      1
C0265            RECT_OPEN    7.917     500.000   0      0      1
C0266            RECT_OPEN    7.917     500.000   0      0      1
C0267            RECT_OPEN    7.917     500.000   0      0      1
C0268            RECT_OPEN    7.917     500.000   0      0      1
C0269            RECT_OPEN    7.917     500.000   0      0      1
C0270            RECT_OPEN    7.917     500.000   0      0      1
C0271            RECT_OPEN    7.917     500.000   0      0      1
C0272            RECT_OPEN    7.917     500.000   0      0      1
C0273            RECT_OPEN    7.917     500.000   0      0      1
C0274            RECT_OPEN    7.917     500.000   0      0      1
C0275            RECT_OPEN    7.917     500.000   0      0      1
C0276            RECT_OPEN    7.917     500.000   0      0      1
C0277            RECT_OPEN    7.917     500.000   0      0      1
C0278            RECT_OPEN    7.917     500.000   0      0      1
C0279            RECT_OPEN    7.917     500.000   0      0      1
C0280            RECT_OPEN    7.917     500.000   0      0      1
C0281            RECT_OPEN    7.917     500.000   0      0      1
C0282            RECT_OPEN    7.917     500.000   0      0      1
C0283            RECT_OPEN    7.917     500.000   0      0      1
C0284            RECT_OPEN    7.917     500.000   0      0      1
C0285            RECT_OPEN    7.917     500.000   0      0      1
C0286            RECT_OPEN    7.917     500.000   0      0      1
C0287            RECT_OPEN    7.917     500.000   0      0      1
C0288            RECT_OPEN    7.917     500.000   0      0      1
C0289            RECT_OPEN    7.917     500.000   0      0      1
C0290            RECT_OPEN    7.917     500.000   0      0      1
C0291            RECT_OPEN    7.917     500.000   0      0      1
C0292            RECT_OPEN    7.917     500.000   0      0      1
C0293            RECT_OPEN    7.917     500.000   0      0      1
C0294            RECT_OPEN    7.917     500.000   0      0      1
C0295            RECT_OPEN    7.917     500.000   0      0      1
C0296            RECT_OPEN    7.917     500.000   0      0      1
C0297            RECT_OPEN    7.917     500.000   0      0      1
C0298            RECT_OPEN    7.917     500.000   0      0      1
C0299            RECT_OPEN    7.917     500.000   0      0      1
C0300            RECT_OPEN    7.917     500.000   0      0      1
C0301            RECT_OPEN    7.917     500.000   0      0      1
C0302            RECT_OPEN    7.917     500.000   0      0      1
C0303            RECT_OPEN    7.917     500.000   0      0      1
C0304            RECT_OPEN    7.917     500.000   0      0      1
C0305            RECT_OPEN    7.917     500.000   0      0      1
C0306            RECT_OPEN    7.917     500.000   0      0      1
C0307            RECT_OPEN    7.917     500.000   0      0      1
C0308            RECT_OPEN    7.917     500.000   0      0      1
C0309            RECT_OPEN    7.917     500.000   0      0      1
C0310            RECT_OPEN    7.917     500.000   0      0      1
C0311            RECT_OPEN    7.917     500.000   0      0      1
C0312            RECT_OPEN    7.917     500.000   0      0      1
C0313            RECT_OPEN    7.917     500.000   0      0      1
C0314            RECT_OPEN    7.917     500.000   0      0      1
C0315            RECT_OPEN    7.917     500.000   0      0      1
C0316            RECT_OPEN    7.917     500.000   0      0      1
C0317            RECT_OPEN    7.917     500.000   0      0      1
C0318            RECT_OPEN    7.917     500.000   0      0      1
C0319            RECT_OPEN    7.917     500.000   0      0      1
C0320            RECT_OPEN    7.917     500.000   0      0      1
C0321            RECT_OPEN    7.917     500.000   0      0      1
C0322            RECT_OPEN    7.917     500.000   0      0      1
C0323            RECT_OPEN    7.917     500.000   0      0      1
C0324            RECT_OPEN    7.917     500.000   0      0      1
C0325            RECT_OPEN    7.917     500.000   0      0      1
C0326            RECT_OPEN    7.917     500.000   0      0      1
C0327            RECT_OPEN    7.917     500.000   0      0      1
C0328            RECT_OPEN    7.917     500.000   0      0      1
C0329            RECT_OPEN    7.917     500.000   0      0      1
C0330            RECT_OPEN    7.917     500.000   0      0      1
C0331            RECT_OPEN    7.917     500.000   0      0      1
C0332            RECT_OPEN    7.917     500.000   0      0      1
C0333            RECT_OPEN    7.917     500.000   0      0      1
C0334            RECT_OPEN    7.917     500.000   0      0      1
C0335            RECT_OPEN    7.917     500.000   0      0      1
C0336            RECT_OPEN    7.917     500.000   0      0      1
C0337            RECT_OPEN    7.917     500.000   0      0      1
C0338            RECT_OPEN    7.917     500.000   0      0      1
C0339            RECT_OPEN    7.917     500.000   0      0      1
C0340            RECT_OPEN    7.917     500.000   0      0      1
C0341            RECT_OPEN    7.917     500.000   0      0      1
C0342            RECT_OPEN    7.917     500.000   0      0      1
C0343            RECT_OPEN    7.917     500.000   0      0      1
C0344            RECT_OPEN    7.917     500.000   0      0      1
C0345            RECT_OPEN    7.917     500.000   0      0      1
C0346            RECT_OPEN    7.917     500.000   0      0      1
C0347            RECT_OPEN    7.917     500.000   0      0      1
C0348            RECT_OPEN    7.917     500.000   0      0      1
C0349            RECT_OPEN    7.917     500.000   0      0      1
C0350            RECT_OPEN    7.917     500.000   0      0      1
C0351            RECT_OPEN    7.917     500.000   0      0      1
C0352            RECT_OPEN    7.917     500.000   0      0      1
C0353            RECT_OPEN    7.917     500.000   0      0      1
C0354            RECT_OPEN    7.917     500.000   0      0      1
C0355            RECT_OPEN    7.917     500.000   0      0      1
C0356            RECT_OPEN    7.917     500.000   0      0      1
C0357            RECT_OPEN    7.917     500.000   0      0      1
C0358            RECT_OPEN    7.917     500.000   0      0      1
C0359            RECT_OPEN    7.917     500.000   0      0      1
C0360            RECT_OPEN    7.917     500.000   0      0      1
C0361            RECT_OPEN    7.917     500.000   0      0      1
C0362            RECT_OPEN    7.917     500.000   0      0      1
C0363            RECT_OPEN    7.917     500.000   0      0      1
C0364            RECT_OPEN    7.917     500.000   0      0      1
C0365            RECT_OPEN    7.917     500.000   0      0      1
C0366            RECT_OPEN    7.917     500.000   0      0      1
C0367            RECT_OPEN    7.917     500.000   0      0      1
C0368            RECT_OPEN    7.917     500.000   0      0      1
C0369            RECT_OPEN    7.917     500.000   0      0      1
C0370            RECT_OPEN    7.917     500.000   0      0      1
C0371            RECT_OPEN    7.917     500.000   0      0      1
C0372            RECT_OPEN    7.917     500.000   0      0      1
C0373            RECT_OPEN    7.917     500.000   0      0      1
C0374            RECT_OPEN    7.917     500.000   0      0      1
C0375            RECT_OPEN    7.917     500.000   0      0      1
C0376            RECT_OPEN    7.917     500.000   0      0      1
C0377            RECT_OPEN    7.917     500.000   0      0      1
C0378            RECT_OPEN    7.917     500.000   0      0      1
C0379            RECT_OPEN    7.917     500.000   0      0      1
C0380            RECT_OPEN    7.917     500.000   0      0      1
C0381            RECT_OPEN    7.917     500.000   0      0      1
C0382            RECT_OPEN    7.917     500.000   0      0      1
C0383            RECT_OPEN    7.917     500.000   0      0      1
C0384            RECT_OPEN    7.917     500.000   0      0      1
C0385            RECT_OPEN    7.917     500.000   0      0      1
C0386            RECT_OPEN    7.917     500.000   0      0      1
C0387            RECT_OPEN    7.917     500.000   0      0      1
C0388            RECT_OPEN    7.917     500.000   0      0      1
C0389            RECT_OPEN    7.917     500.000   0      0      1
C0390            RECT_OPEN    7.917     500.000   0      0      1
C0391            RECT_OPEN    7.917     500.000   0      0      1
C0392            RECT_OPEN    7.917     500.000   0      0      1
C0393            RECT_OPEN    7.917     500.000   0      0      1
C0394            RECT_OPEN    7.917     500.000   0      0      1
C0395            RECT_OPEN    7.917     500.000   0      0      1
C0396            RECT_OPEN    7.917     500.000   0      0      1
C0397            RECT_OPEN    7.917     500.000   0      0      1
C0398            RECT_OPEN    7.917     500.000   0      0      1
C0399            RECT_OPEN    7.917     500.000   0      0      1
C0400            RECT_OPEN    7.917     500.000   0      0      1
C0401            RECT_OPEN    7.917     500.000   0      0      1
C0402            RECT_OPEN    7.917     500.000   0      0      1
C0403            RECT_OPEN    7.917     500.000   0      0      1
C0404            RECT_OPEN    7.917     500.000   0      0      1
C0405            RECT_OPEN    7.917     500.000   0      0      1
C0406            RECT_OPEN    7.917     500.000   0      0      1
C0407            RECT_OPEN    7.917     500.000   0      0      1
C0408            RECT_OPEN    7.917     500.000   0      0      1
C0409            RECT_OPEN    7.917     500.000   0      0      1
C0410            RECT_OPEN    7.917     500.000   0      0      1
C0411            RECT_OPEN    7.917     500.000   0      0      1
C0412            RECT_OPEN    7.917     500.000   0      0      1
C0413            RECT_OPEN    7.917     500.000   0      0      1
C0414            RECT_OPEN    7.917     500.000   0      0      1
C0415            RECT_OPEN    7.917     500.000   0      0      1
C0416            RECT_OPEN    7.917     500.000   0      0      1
C0417            RECT_OPEN    7.917     500.000   0      0      1
C0418            RECT_OPEN    7.917     500.000   0      0      1
C0419            RECT_OPEN    7.917     500.000   0      0      1
C0420            RECT_OPEN    7.917     500.000   0      0      1
C0421            RECT_OPEN    7.917     500.000   0      0      1
C0422            RECT_OPEN    7.917     500.000   0      0      1
C0423            RECT_OPEN    7.917     500.000   0      0      1
C0424            RECT_OPEN    7.917     500.000   0      0      1
C0425            RECT_OPEN    7.917     500.000   0      0      1
C0426            RECT_OPEN    7.917     500.000   0      0      1
C0427            RECT_OPEN    7.917     500.000   0      0      1
C0428            RECT_OPEN    7.917     500.000   0      0      1
C0429            RECT_OPEN    7.917     500.000   0      0      1
C0430            RECT_OPEN    7.917     500.000   0      0      1
C0431            RECT_OPEN    7.917     500.000   0      0      1
C0432            RECT_OPEN    7.917     500.000   0      0      1
C0433            RECT_OPEN    7.917     500.000   0      0      1
C0434            RECT_OPEN    7.917     500.000   0      0      1
C0435            RECT_OPEN    7.917     500.000   0      0      1
C0436            RECT_OPEN    7.917     500.000   0      0      1
C0437            RECT_OPEN    7.917     500.000   0      0      1
C0438            RECT_OPEN    7.917     500.000   0      0      1
C0439            RECT_OPEN    7.917     500.000   0      0      1
C0440            RECT_OPEN    7.917     500.000   0      0      1
C0441            RECT_OPEN    7.917     500.000   0      0      1
C0442            RECT_OPEN    7.917     500.000   0      0      1
C0443            RECT_OPEN    7.917     500.000   0      0      1
C0444            RECT_OPEN    7.917     500.000   0      0      1
C0445            RECT_OPEN    7.917     500.000   0      0      1
C0446            RECT_OPEN    7.917     500.000   0      0      1
C0447            RECT_OPEN    7.917     500.000   0      0      1
C0448            RECT_OPEN    7.917     500.000   0      0      1
C0449            RECT_OPEN    7.917     500.000   0      0      1
C0450            RECT_OPEN    7.917     500.000   0      0      1
C0451            RECT_OPEN    7.917     500.000   0      0      1
C0452            RECT_OPEN    7.917     500.000   0      0      1
C0453            RECT_OPEN    7.917     500.000   0      0      1
C0454            RECT_OPEN    7.917     500.000   0      0      1
C0455            RECT_OPEN    7.917     500.000   0      0      1
C0456            RECT_OPEN    7.917     500.000   0      0      1
C0457            RECT_OPEN    7.917     500.000   0      0      1
C0458            RECT_OPEN    7.917     500.000   0      0      1
C0459            RECT_OPEN    7.917     500.000   0      0      1
C0460            RECT_OPEN    7.917     500.000   0      0      1
C0461            RECT_OPEN    7.917     500.000   0      0      1
C0462            RECT_OPEN    7.917     500.000   0      0      1
C0463            RECT_OPEN    7.917     500.000   0      0      1
C0464            RECT_OPEN    7.917     500.000   0      0      1
C0465            RECT_OPEN    7.917     500.000   0      0      1
C0466            RECT_OPEN    7.917     500.000   0      0      1
C0467            RECT_OPEN    7.917     500.000   0      0      1
C0468            RECT_OPEN    7.917     500.000   0      0      1
C0469            RECT_OPEN    7.917     500.000   0      0      1
C0470            RECT_OPEN    7.917     500.000   0      0      1
C0471            RECT_OPEN    7.917     500.000   0      0      1
C0472            RECT_OPEN    7.917     500.000   0      0      1
C0473            RECT_OPEN    7.917     500.000   0      0      1
C0474            RECT_OPEN    7.917     500.000   0      0      1
C0475            RECT_OPEN    7.917     500.000   0      0      1
C0476            RECT_OPEN    7.917     500.000   0      0      1
C0477            RECT_OPEN    7.917     500.000   0      0      1
C0478            RECT_OPEN    7.917     500.000   0      0      1
C0479            RECT_OPEN    7.917     500.000   0      0      1
C0480            RECT_OPEN    7.917     500.000   0      0      1
C0481            RECT_OPEN    7.917     500.000   0      0      1
C0482            RECT_OPEN    7.917     500.000   0      0      1
C0483            RECT_OPEN    7.917     500.000   0      0      1
C0484            RECT_OPEN    7.917     500.000   0      0      1
C0485            RECT_OPEN    7.917     500.000   0      0      1
C0486            RECT_OPEN    7.917     500.000   0      0      1
C0487            RECT_OPEN    7.917     500.000   0      0      1
C0488            RECT_OPEN    7.917     500.000   0      0      1
C0489            RECT_OPEN    7.917     500.000   0      0      1
C0490            RECT_OPEN    7.917     500.000   0      0      1
C0491            RECT_OPEN    7.917     500.000   0      0      1
C0492            RECT_OPEN    7.917     500.000   0      0      1
C0493            RECT_OPEN    7.917     500.000   0      0      1
C0494            RECT_OPEN    7.917     500.000   0      0      1
C0495            RECT_OPEN    7.917     500.000   0      0      1
C0496            RECT_OPEN    7.917     500.000   0      0      1
C0497            RECT_OPEN    7.917     500.000   0      0      1
C0498            RECT_OPEN    7.917     500.000   0      0      1
C0499            RECT_OPEN    7.917     500.000   0      0      1
C0500            RECT_OPEN    7.917     500.000   0      0      1
C0501            RECT_OPEN    7.917     500.000   0      0      1
C0502            RECT_OPEN    7.917     500.000   0      0      1
C0503            RECT_OPEN    7.917     500.000   0      0      1
C0504            RECT_OPEN    7.917     500.000   0      0      1
C0505            RECT_OPEN    7.917     500.000   0      0      1
C0506            RECT_OPEN    7.917     500.000   0      0      1
C0507            RECT_OPEN    7.917     500.000   0      0      1
C0508            RECT_OPEN    7.917     500.000   0      0      1
C0509            RECT_OPEN    7.917     500.000   0      0      1
C0510            RECT_OPEN    7.917     500.000   0      0      1
C0511            RECT_OPEN    7.917     500.000   0      0      1
C0512            RECT_OPEN    7.917     500.000   0      0      1
C0513            RECT_OPEN    7.917     500.000   0      0      1
C0514            RECT_OPEN    7.917     500.000   0      0      1
C0515            RECT_OPEN    7.917     500.000   0      0      1
C0516            RECT_OPEN    7.917     500.000   0      0      1
C0517            RECT_OPEN    7.917     500.000   0      0      1
C0518            RECT_OPEN    7.917     500.000   0      0      1
C0519            RECT_OPEN    7.917     500.000   0      0      1
C0520            RECT_OPEN    7.917     500.000   0      0      1
C0521            RECT_OPEN    7.917     500.000   0      0      1
C0522            RECT_OPEN    7.917     500.000   0      0      1
C0523            RECT_OPEN    7.917     500.000   0      0      1
C0524            RECT_OPEN    7.917     500.000   0      0      1
C0525            RECT_OPEN    7.917     500.000   0      0      1
C0526            RECT_OPEN    7.917     500.000   0      0      1
C0527            RECT_OPEN    7.917     500.000   0      0      1
C0528            RECT_OPEN    7.917     500.000   0      0      1
C0529            RECT_OPEN    7.917     500.000   0      0      1
C0530            RECT_OPEN    7.917     500.000   0      0      1
C0531            RECT_OPEN    7.917     500.000   0      0      1
C0532            RECT_OPEN    7.917     500.000   0      0      1
C0533            RECT_OPEN    7.917     500.000   0      0      1
C0534            RECT_OPEN    7.917     500.000   0      0      1
C0535            RECT_OPEN    7.917     500.000   0      0      1
C0536            RECT_OPEN    7.917     500.000   0      0      1
C0537            RECT_OPEN    7.917     500.000   0      0      1
C0538            RECT_OPEN    7.917     500.000   0      0      1
C0539            RECT_OPEN    7.917     500.000   0      0      1
C0540            RECT_OPEN    7.917     500.000   0      0      1
C0541            RECT_OPEN    7.917     500.000   0      0      1
C0542            RECT_OPEN    7.917     500.000   0      0      1
C0543            RECT_OPEN    7.917     500.000   0      0      1
C0544            RECT_OPEN    7.917     500.000   0      0      1
C0545            RECT_OPEN    7.917     500.000   0      0      1
C0546            RECT_OPEN    7.917     500.000   0      0      1
C0547            RECT_OPEN    7.917     500.000   0      0      1
C0548            RECT_OPEN    7.917     500.000   0      0      1
C0549            RECT_OPEN    7.917     500.000   0      0      1
C0550            RECT_OPEN    7.917     500.000   0      0      1
C0551            RECT_OPEN    7.917     500.000   0      0      1
C0552            RECT_OPEN    7.917     500.000   0      0      1
C0553            RECT_OPEN    7.917     500.000   0      0      1
C0554            RECT_OPEN    7.917     500.000   0      0      1
C0555            RECT_OPEN    7.917     500.000   0      0      1
C0556            RECT_OPEN    7.917     500.000   0      0      1
C0557            RECT_OPEN    7.917     500.000   0      0      1
C0558            RECT_OPEN    7.917     500.000   0      0      1
C0559            RECT_OPEN    7.917     500.000   0      0      1
C0560            RECT_OPEN    7.917     500.000   0      0      1
C0561            RECT_OPEN    7.917     500.000   0      0      1
C0562            RECT_OPEN    7.917     500.000   0      0      1
C0563            RECT_OPEN    7.917     500.000   0      0      1
C0564            RECT_OPEN    7.917     500.000   0      0      1
C0565            RECT_OPEN    7.917     500.000   0      0      1
C0566            RECT_OPEN    7.917     500.000   0      0      1
C0567            RECT_OPEN    7.917     500.000   0      0      1
C0568            RECT_OPEN    7.917     500.000   0      0      1
C0569            RECT_OPEN    7.917     500.000   0      0      1
C0570            RECT_OPEN    7.917     500.000   0      0      1
C0571            RECT_OPEN    7.917     500.000   0      0      1
C0572            RECT_OPEN    7.917     500.000   0      0      1
C0573            RECT_OPEN    7.917     500.000   0      0      1
C0574            RECT_OPEN    7.917     500.000   0      0      1
C0575            RECT_OPEN    7.917     500.000   0      0      1
C0576            RECT_OPEN    7.917     500.000   0      0      1
C0577            RECT_OPEN    7.917     500.000   0      0      1
C0578            RECT_OPEN    7.917     500.000   0      0      1
C0579            RECT_OPEN    7.917     500.000   0      0      1
C0580            RECT_OPEN    7.917     500.000   0      0      1
C0581            RECT_OPEN    7.917     500.000   0      0      1
C0582            RECT_OPEN    7.917     500.000   0      0      1
C0583            RECT_OPEN    7.917     500.000   0      0      1
C0584            RECT_OPEN    7.917     500.000   0      0      1
C0585            RECT_OPEN    7.917     500.000   0      0      1
C0586            RECT_OPEN    7.917     500.000   0      0      1
C0587            RECT_OPEN    7.917     500.000   0      0      1
C0588            RECT_OPEN    7.917     500.000   0      0      1
C0589            RECT_OPEN    7.917     500.000   0      0      1
C0590            RECT_OPEN    7.917     500.000   0      0      1
C0591            RECT_OPEN    7.917     500.000   0      0      1
C0592            RECT_OPEN    7.917     500.000   0      0      1
C0593            RECT_OPEN    7.917     500.000   0      0      1
C0594            RECT_OPEN    7.917     500.000   0      0      1
C0595            RECT_OPEN    7.917     500.000   0      0      1
C0596            RECT_OPEN    7.917     500.000   0      0      1
C0597            RECT_OPEN    7.917     500.000   0      0      1
C0598            RECT_OPEN    7.917     500.000   0      0      1
C0599            RECT_OPEN    7.917     500.000   0      0      1
C0600            RECT_OPEN    7.917     500.000   0      0      1
C0601            RECT_OPEN    7.917     500.000   0      0      1
C0602            RECT_OPEN    7.917     500.000   0      0      1
C0603            RECT_OPEN    7.917     500.000   0      0      1
C0604            RECT_OPEN    7.917     500.000   0      0      1
C0605            RECT_OPEN    7.917     500.000   0      0      1
C0606            RECT_OPEN    7.917     500.000   0      0      1
C0607            RECT_OPEN    7.917     500.000   0      0      1
C0608            RECT_OPEN    7.917     500.000   0      0      1
C0609            RECT_OPEN    7.917     500.000   0      0      1
C0610            RECT_OPEN    7.917     500.000   0      0      1
C0611            RECT_OPEN    7.917     500.000   0      0      1
C0612            RECT_OPEN    7.917     500.000   0      0      1
C0613            RECT_OPEN    7.917     500.000   0      0      1
C0614            RECT_OPEN    7.917     500.000   0      0      1
C0615            RECT_OPEN    7.917     500.000   0      0      1
C0616            RECT_OPEN    7.917     500.000   0      0      1
C0617            RECT_OPEN    7.917     500.000   0      0      1
C0618            RECT_OPEN    7.917     500.000   0      0      1
C0619            RECT_OPEN    7.917     500.000   0      0      1
C0620            RECT_OPEN    7.917     500.000   0      0      1
C0621            RECT_OPEN    7.917     500.000   0      0      1
C0622            RECT_OPEN    7.917     500.000   0      0      1
C0623            RECT_OPEN    7.917     500.000   0      0      1
C0624            RECT_OPEN    7.917     500.000   0      0      1
C0625            RECT_OPEN    7.917     500.000   0      0      1
C0626            RECT_OPEN    7.917     500.000   0      0      1
C0627            RECT_OPEN    7.917     500.000   0      0      1
C0628            RECT_OPEN    7.917     500.000   0      0      1
C0629            RECT_OPEN    7.917     500.000   0      0      1
C0630            RECT_OPEN    7.917     500.000   0      0      1
C0631            RECT_OPEN    7.917     500.000   0      0      1
C0632            RECT_OPEN    7.917     500.000   0      0      1
C0633            RECT_OPEN    7.917     500.000   0      0      1
C0634            RECT_OPEN    7.917     500.000   0      0      1
C0635            RECT_OPEN    7.917     500.000   0      0      1
C0636            RECT_OPEN    7.917     500.000   0      0      1
C0637            RECT_OPEN    7.917     500.000   0      0      1
C0638            RECT_OPEN    7.917     500.000   0      0      1
C0639            RECT_OPEN    7.917     500.000   0      0      1
C0640            RECT_OPEN    7.917     500.000   0      0      1
C0641            RECT_OPEN    7.917     500.000   0      0      1
C0642            RECT_OPEN    7.917     500.000   0      0      1
C0643            RECT_OPEN    7.917     500.000   0      0      1
C0644            RECT_OPEN    7.917     500.000   0      0      1
C0645            RECT_OPEN    7.917     500.000   0      0      1
C0646            RECT_OPEN    7.917     500.000   0      0      1
C0647            RECT_OPEN    7.917     500.000   0      0      1
C0648            RECT_OPEN    7.917     500.000   0      0      1
C0649            RECT_OPEN    7.917     500.000   0      0      1
C0650            RECT_OPEN    7.917     500.000   0      0      1
C0651            RECT_OPEN    7.917     500.000   0      0      1
C0652            RECT_OPEN    7.917     500.000   0      0      1
C0653            RECT_OPEN    7.917     500.000   0      0      1
C0654            RECT_OPEN    7.917     500.000   0      0      1
C0655            RECT_OPEN    7.917     500.000   0      0      1
C0656            RECT_OPEN    7.917     500.000   0      0      1
C0657            RECT_OPEN    7.917     500.000   0      0      1
C0658            RECT_OPEN    7.917     500.000   0      0      1
C0659            RECT_OPEN    7.917     500.000   0      0      1
C0660            RECT_OPEN    7.917     500.000   0      0      1
C0661            RECT_OPEN    7.917     500.000   0      0      1
C0662            RECT_OPEN    7.917     500.000   0      0      1
C0663            RECT_OPEN    7.917     500.000   0      0      1
C0664            RECT_OPEN    7.917     500.000   0      0      1
C0665            RECT_OPEN    7.917     500.000   0      0      1
C0666            RECT_OPEN    7.917     500.000   0      0      1
C0667            RECT_OPEN    7.917     500.000   0      0      1
C0668            RECT_OPEN    7.917     500.000   0      0      1
C0669            RECT_OPEN    7.917     500.000   0      0      1
C0670            RECT_OPEN    7.917     500.000   0      0      1
C0671            RECT_OPEN    7.917     500.000   0      0      1
C0672            RECT_OPEN    7.917     500.000   0      0      1
C0673            RECT_OPEN    7.917     500.000   0      0      1
C0674            RECT_OPEN    7.917     500.000   0      0      1
C0675            RECT_OPEN    7.917     500.000   0      0      1
C0676            RECT_OPEN    7.917     500.000   0      0      1
C0677            RECT_OPEN    7.917     500.000   0      0      1
C0678            RECT_OPEN    7.917     500.000   0      0      1
C0679            RECT_OPEN    7.917     500.000   0      0      1
C0680            RECT_OPEN    7.917     500.000   0      0      1
C0681            RECT_OPEN    7.917     500.000   0      0      1
C0682            RECT_OPEN    7.917     500.000   0      0      1
C0683            RECT_OPEN    7.917     500.000   0      0      1
C0684            RECT_OPEN    7.917     500.000   0      0      1
C0685            RECT_OPEN    7.917     500.000   0      0      1
C0686            RECT_OPEN    7.917     500.000   0      0      1
C0687            RECT_OPEN    7.917     500.000   0      0      1
C0688            RECT_OPEN    7.917     500.000   0      0      1
C0689            RECT_OPEN    7.917     500.000   0      0      1
C0690            RECT_OPEN    7.917     500.000   0      0      1
C0691            RECT_OPEN    7.917     500.000   0      0      1
C0692            RECT_OPEN    7.917     500.000   0      0      1
C0693            RECT_OPEN    7.917     500.000   0      0      1
C0694            RECT_OPEN    7.917     500.000   0      0      1
C0695            RECT_OPEN    7.917     500.000   0      0      1
C0696            RECT_OPEN    7.917     500.000   0      0      1
C0697            RECT_OPEN    7.917     500.000   0      0      1
C0698            RECT_OPEN    7.917     500.000   0      0      1
C0699            RECT_OPEN    7.917     500.000   0      0      1
C0700            RECT_OPEN    7.917     500.000   0      0      1
C0701            RECT_OPEN    7.917     500.000   0      0      1
C0702            RECT_OPEN    7.917     500.000   0      0      1
C0703            RECT_OPEN    7.917     500.000   0      0      1
C0704            RECT_OPEN    7.917     500.000   0      0      1
C0705            RECT_OPEN    7.917     500.000   0      0      1
C0706            RECT_OPEN    7.917     500.000   0      0      1
C0707            RECT_OPEN    7.917     500.000   0      0      1
C0708            RECT_OPEN    7.917     500.000   0      0      1
C0709            RECT_OPEN    7.917     500.000   0      0      1
C0710            RECT_OPEN    7.917     500.000   0      0      1
C0711            RECT_OPEN    7.917     500.000   0      0      1
C0712            RECT_OPEN    7.917     500.000   0      0      1
C0713            RECT_OPEN    7.917     500.000   0      0      1
C0714            RECT_OPEN    7.917     500.000   0      0      1
C0715            RECT_OPEN    7.917     500.000   0      0      1
C0716            RECT_OPEN    7.917     500.000   0      0      1
C0717            RECT_OPEN    7.917     500.000   0      0      1
C0718            RECT_OPEN    7.917     500.000   0      0      1
C0719            RECT_OPEN    7.917     500.000   0      0      1
C0720            RECT_OPEN    7.917     500.000   0      0      1
C0721            RECT_OPEN    7.917     500.000   0      0      1
C0722            RECT_OPEN    7.917     500.000   0      0      1
C0723            RECT_OPEN    7.917     500.000   0      0      1
C0724            RECT_OPEN    7.917     500.000   0      0      1
C0725            RECT_OPEN    7.917     500.000   0      0      1
C0726            RECT_OPEN    7.917     500.000   0      0      1
C0727            RECT_OPEN    7.917     500.000   0      0      1
C0728            RECT_OPEN    7.917     500.000   0      0      1
C0729            RECT_OPEN    7.917     500.000   0      0      1
C0730            RECT_OPEN    7.917     500.000   0      0      1
C0731            RECT_OPEN    7.917     500.000   0      0      1
C0732            RECT_OPEN    7.917     500.000   0      0      1
C0733            RECT_OPEN    7.917     500.000   0      0      1
C0734            RECT_OPEN    7.917     500.000   0      0      1
C0735            RECT_OPEN    7.917     500.000   0      0      1
C0736            RECT_OPEN    7.917     500.000   0      0      1
C0737            RECT_OPEN    7.917     500.000   0      0      1
C0738            RECT_OPEN    7.917     500.000   0      0      1
C0739            RECT_OPEN    7.917     500.000   0      0      1
C0740            RECT_OPEN    7.917     500.000   0      0      1
C0741            RECT_OPEN    7.917     500.000   0      0      1
C0742            RECT_OPEN    7.917     500.000   0      0      1
C0743            RECT_OPEN    7.917     500.000   0      0      1
C0744            RECT_OPEN    7.917     500.000   0      0      1
C0745            RECT_OPEN    7.917     500.000   0      0      1
C0746            RECT_OPEN    7.917     500.000   0      0      1
C0747            RECT_OPEN    7.917     500.000   0      0      1
C0748            RECT_OPEN    7.917     500.000   0      0      1
C0749            RECT_OPEN    7.917     500.000   0      0      1
C0750            RECT_OPEN    7.917     500.000   0      0      1
C0751            RECT_OPEN    7.917     500.000   0      0      1
C0752            RECT_OPEN    7.917     500.000   0      0      1
C0753            RECT_OPEN    7.917     500.000   0      0      1
C0754            RECT_OPEN    7.917     500.000   0      0      1
C0755            RECT_OPEN    7.917     500.000   0      0      1
C0756            RECT_OPEN    7.917     500.000   0      0      1
C0757            RECT_OPEN    7.917     500.000   0      0      1
C0758            RECT_OPEN    7.917     500.000   0      0      1
C0759            RECT_OPEN    7.917     500.000   0      0      1
C0760            RECT_OPEN    7.917     500.000   0      0      1
C0761            RECT_OPEN    7.917     500.000   0      0      1
C0762            RECT_OPEN    7.917     500.000   0      0      1
C0763            RECT_OPEN    7.917     500.000   0      0      1
C0764            RECT_OPEN    7.917     500.000   0      0      1
C0765            RECT_OPEN    7.917     500.000   0      0      1
C0766            RECT_OPEN    7.917     500.000   0      0      1
C0767            RECT_OPEN    7.917     500.000   0      0      1
C0768            RECT_OPEN    7.917     500.000   0      0      1
C0769            RECT_OPEN    7.917     500.000   0      0      1
C0770            RECT_OPEN    7.917     500.000   0      0      1
C0771            RECT_OPEN    7.917     500.000   0      0      1
C0772            RECT_OPEN    7.917     500.000   0      0      1
C0773            RECT_OPEN    7.917     500.000   0      0      1
C0774            RECT_OPEN    7.917     500.000   0      0      1
C0775            RECT_OPEN    7.917     500.000   0      0      1
C0776            RECT_OPEN    7.917     500.000   0      0      1
C0777            RECT_OPEN    7.917     500.000   0      0      1
C0778            RECT_OPEN    7.917     500.000   0      0      1
C0779            RECT_OPEN    7.917     500.000   0      0      1
C0780            RECT_OPEN    7.917     500.000   0      0      1
C0781            RECT_OPEN    7.917     500.000   0      0      1
C0782            RECT_OPEN    7.917     500.000   0      0      1
C0783            RECT_OPEN    7.917     500.000   0      0      1
C0784            RECT_OPEN    7.917     500.000   0      0      1
C0785            RECT_OPEN    7.917     500.000   0      0      1
C0786            RECT_OPEN    7.917     500.000   0      0      1
C0787            RECT_OPEN    7.917     500.000   0      0      1
C0788            RECT_OPEN    7.917     500.000   0      0      1
C0789            RECT_OPEN    7.917     500.000   0      0      1
C0790            RECT_OPEN    7.917     500.000   0      0      1
C0791            RECT_OPEN    7.917     500.000   0      0      1
C0792            RECT_OPEN    7.917     500.000   0      0      1
C0793            RECT_OPEN    7.917     500.000   0      0      1
C0794            RECT_OPEN    7.917     500.000   0      0      1
C0795            RECT_OPEN    7.917     500.000   0      0      1
C0796            RECT_OPEN    7.917     500.000   0      0      1
C0797            RECT_OPEN    7.917     500.000   0      0      1
C0798            RECT_OPEN    7.917     500.000   0      0      1
C0799            RECT_OPEN    7.917     500.000   0      0      1
C0800            RECT_OPEN    7.917     500.000   0      0      1
C0801            RECT_OPEN    7.917     500.000   0      0      1
C0802            RECT_OPEN    7.917     500.000   0      0      1
C0803            RECT_OPEN    7.917     500.000   0      0      1
C0804            RECT_OPEN    7.917     500.000   0      0      1
C0805            RECT_OPEN    7.917     500.000   0      0      1
C0806            RECT_OPEN    7.917     500.000   0      0      1
C0807            RECT_OPEN    7.917     500.000   0      0      1
C0808            RECT_OPEN    7.917     500.000   0      0      1
C0809            RECT_OPEN    7.917     500.000   0      0      1
C0810            RECT_OPEN    7.917     500.000   0      0      1
C0811            RECT_OPEN    7.917     500.000   0      0      1
C0812            RECT_OPEN    7.917     500.000   0      0      1
C0813            RECT_OPEN    7.917     500.000   0      0      1
C0814            RECT_OPEN    7.917     500.000   0      0      1
C0815            RECT_OPEN    7.917     500.000   0      0      1
C0816            RECT_OPEN    7.917     500.000   0      0      1
C0817            RECT_OPEN    7.917     500.000   0      0      1
C0818            RECT_OPEN    7.917     500.000   0      0      1
C0819            RECT_OPEN    7.917     500.000   0      0      1
C0820            RECT_OPEN    7.917     500.000   0      0      1
C0821            RECT_OPEN    7.917     500.000   0      0      1
C0822            RECT_OPEN    7.917     500.000   0      0      1
C0823            RECT_OPEN    7.917     500.000   0      0      1
C0824            RECT_OPEN    7.917     500.000   0      0      1
C0825            RECT_OPEN    7.917     500.000   0      0      1
C0826            RECT_OPEN    7.917     500.000   0      0      1
C0827            RECT_OPEN    7.917     500.000   0      0      1
C0828            RECT_OPEN    7.917     500.000   0      0      1
C0829            RECT_OPEN    7.917     500.000   0      0      1
C0830            RECT_OPEN    7.917     500.000   0      0      1
C0831            RECT_OPEN    7.917     500.000   0      0      1
C0832            RECT_OPEN    7.917     500.000   0      0      1
C0833            RECT_OPEN    7.917     500.000   0      0      1
C0834            RECT_OPEN    7.917     500.000   0      0      1
C0835            RECT_OPEN    7.917     500.000   0      0      1
C0836            RECT_OPEN    7.917     500.000   0      0      1
C0837            RECT_OPEN    7.917     500.000   0      0      1
C0838            RECT_OPEN    7.917     500.000   0      0      1
C0839            RECT_OPEN    7.917     500.000   0      0      1
C0840            RECT_OPEN    7.917     500.000   0      0      1
C0841            RECT_OPEN    7.917     500.000   0      0      1
C0842            RECT_OPEN    7.917     500.000   0      0      1
C0843            RECT_OPEN    7.917     500.000   0      0      1
C0844            RECT_OPEN    7.917     500.000   0      0      1
C0845            RECT_OPEN    7.917     500.000   0      0      1
C0846            RECT_OPEN    7.917     500.000   0      0      1
C0847            RECT_OPEN    7.917     500.000   0      0      1
C0848            RECT_OPEN    7.917     500.000   0      0      1
C0849            RECT_OPEN    7.917     500.000   0      0      1
C0850            RECT_OPEN    7.917     500.000   0      0      1
C0851            RECT_OPEN    7.917     500.000   0      0      1
C0852            RECT_OPEN    7.917     500.000   0      0      1
C0853            RECT_OPEN    7.917     500.000   0      0      1
C0854            RECT_OPEN    7.917     500.000   0      0      1
C0855            RECT_OPEN    7.917     500.000   0      0      1
C0856            RECT_OPEN    7.917     500.000   0      0      1
C0857            RECT_OPEN    7.917     500.000   0      0      1
C0858            RECT_OPEN    7.917     500.000   0      0      1
C0859            RECT_OPEN    7.917     500.000   0      0      1
C0860            RECT_OPEN    7.917     500.000   0      0      1
C0861            RECT_OPEN    7.917     500.000   0      0      1
C0862            RECT_OPEN    7.917     500.000   0      0      1
C0863            RECT_OPEN    7.917     500.000   0      0      1
C0864            RECT_OPEN    7.917     500.000   0      0      1
C0865            RECT_OPEN    7.917     500.000   0      0      1
C0866            RECT_OPEN    7.917     500.000   0      0      1
C0867            RECT_OPEN    7.917     500.000   0      0      1
C0868            RECT_OPEN    7.917     500.000   0      0      1
C0869            RECT_OPEN    7.917     500.000   0      0      1
C0870            RECT_OPEN    7.917     500.000   0      0      1
C0871            RECT_OPEN    7.917     500.000   0      0      1
C0872            RECT_OPEN    7.917     500.000   0      0      1
C0873            RECT_OPEN    7.917     500.000   0      0      1
C0874            RECT_OPEN    7.917     500.000   0      0      1
C0875            RECT_OPEN    7.917     500.000   0      0      1
C0876            RECT_OPEN    7.917     500.000   0      0      1
C0877            RECT_OPEN    7.917     500.000   0      0      1
C0878            RECT_OPEN    7.917     500.000   0      0      1
C0879            RECT_OPEN    7.917     500.000   0      0      1
C0880            RECT_OPEN    7.917     500.000   0      0      1
C0881            RECT_OPEN    7.917     500.000   0      0      1
C0882            RECT_OPEN    7.917     500.000   0      0      1
C0883            RECT_OPEN    7.917     500.000   0      0      1
C0884            RECT_OPEN    7.917     500.000   0      0      1
C0885            RECT_OPEN    7.917     500.000   0      0      1
C0886            RECT_OPEN    7.917     500.000   0      0      1
C0887            RECT_OPEN    7.917     500.000   0      0      1
C0888            RECT_OPEN    7.917     500.000   0      0      1
C0889            RECT_OPEN    7.917     500.000   0      0      1
C0890            RECT_OPEN    7.917     500.000   0      0      1
C0891            RECT_OPEN    7.917     500.000   0      0      1
C0892            RECT_OPEN    7.917     500.000   0      0      1
C0893            RECT_OPEN    7.917     500.000   0      0      1
C0894            RECT_OPEN    7.917     500.000   0      0      1
C0895            RECT_OPEN    7.917     500.000   0      0      1
C0896            RECT_OPEN    7.917     500.000   0      0      1
C0897            RECT_OPEN    7.917     500.000   0      0      1
C0898            RECT_OPEN    7.917     500.000   0      0      1
C0899            RECT_OPEN    7.917     500.000   0      0      1
C0900            RECT_OPEN    7.917     500.000   0      0      1
C0901            RECT_OPEN    7.917     500.000   0      0      1
C0902            RECT_OPEN    7.917     500.000   0      0      1
C0903            RECT_OPEN    7.917     500.000   0      0      1
C0904            RECT_OPEN    7.917     500.000   0      0      1
C0905            RECT_OPEN    7.917     500.000   0      0      1
C0906            RECT_OPEN    7.917     500.000   0      0      1
C0907            RECT_OPEN    7.917     500.000   0      0      1
C0908            RECT_OPEN    7.917     500.000   0      0      1
C0909            RECT_OPEN    7.917     500.000   0      0      1
C0910            RECT_OPEN    7.917     500.000   0      0      1
C0911            RECT_OPEN    7.917     500.000   0      0      1
C0912            RECT_OPEN    7.917     500.000   0      0      1
C0913            RECT_OPEN    7.917     500.000   0      0      1
C0914            RECT_OPEN    7.917     500.000   0      0      1
C0915            RECT_OPEN    7.917     500.000   0      0      1
C0916            RECT_OPEN    7.917     500.000   0      0      1
C0917            RECT_OPEN    7.917     500.000   0      0      1
C0918            RECT_OPEN    7.917     500.000   0      0      1
C0919            RECT_OPEN    7.917     500.000   0      0      1
C0920            RECT_OPEN    7.917     500.000   0      0      1
C0921            RECT_OPEN    7.917     500.000   0      0      1
C0922            RECT_OPEN    7.917     500.000   0      0      1
C0923            RECT_OPEN    7.917     500.000   0      0      1
C0924            RECT_OPEN    7.917     500.000   0      0      1
C0925            RECT_OPEN    7.917     500.000   0      0      1
C0926            RECT_OPEN    7.917     500.000   0      0      1
C0927            RECT_OPEN    7.917     500.000   0      0      1
C0928            RECT_OPEN    7.917     500.000   0      0      1
C0929            RECT_OPEN    7.917     500.000   0      0      1
C0930            RECT_OPEN    7.917     500.000   0      0      1
C0931            RECT_OPEN    7.917     500.000   0      0      1
C0932            RECT_OPEN    7.917     500.000   0      0      1
C0933            RECT_OPEN    7.917     500.000   0      0      1
C0934            RECT_OPEN    7.917     500.000   0      0      1
C0935            RECT_OPEN    7.917     500.000   0      0      1
C0936            RECT_OPEN    7.917     500.000   0      0      1
C0937            RECT_OPEN    7.917     500.000   0      0      1
C0938            RECT_OPEN    7.917     500.000   0      0      1
C0939            RECT_OPEN    7.917     500.000   0      0      1
C0940            RECT_OPEN    7.917     500.000   0      0      1
C0941            RECT_OPEN    7.917     500.000   0      0      1
C0942            RECT_OPEN    7.917     500.000   0      0      1
C0943            RECT_OPEN    7.917     500.000   0      0      1
C0944            RECT_OPEN    7.917     500.000   0      0      1
C0945            RECT_OPEN    7.917     500.000   0      0      1
C0946            RECT_OPEN    7.917     500.000   0      0      1
C0947            RECT_OPEN    7.917     500.000   0      0      1
C0948            RECT_OPEN    7.917     500.000   0      0      1
C0949            RECT_OPEN    7.917     500.000   0      0      1
C0950            RECT_OPEN    7.917     500.000   0      0      1
C0951            RECT_OPEN    7.917     500.000   0      0      1
C0952            RECT_OPEN    7.917     500.000   0      0      1
C0953            RECT_OPEN    7.917     500.000   0      0      1
C0954            RECT_OPEN    7.917     500.000   0      0      1
C0955            RECT_OPEN    7.917     500.000   0      0      1
C0956            RECT_OPEN    7.917     500.000   0      0      1
C0957            RECT_OPEN    7.917     500.000   0      0      1
C0958            RECT_OPEN    7.917     500.000   0      0      1
C0959            RECT_OPEN    7.917     500.000   0      0      1
C0960            RECT_OPEN    7.917     500.000   0      0      1
C0961            RECT_OPEN    7.917     500.000   0      0      1
C0962            RECT_OPEN    7.917     500.000   0      0      1
C0963            RECT_OPEN    7.917     500.000   0      0      1
C0964            RECT_OPEN    7.917     500.000   0      0      1
C0965            RECT_OPEN    7.917     500.000   0      0      1
C0966            RECT_OPEN    7.917     500.000   0      0      1
C0967            RECT_OPEN    7.917     500.000   0      0      1
C0968            RECT_OPEN    7.917     500.000   0      0      1
C0969            RECT_OPEN    7.917     500.000   0      0      1
C0970            RECT_OPEN    7.917     500.000   0      0      1
C0971            RECT_OPEN    7.917     500.000   0      0      1
C0972            RECT_OPEN    7.917     500.000   0      0      1
C0973            RECT_OPEN    7.917     500.000   0      0      1
C0974            RECT_OPEN    7.917     500.000   0      0      1
C0975            RECT_OPEN    7.917     500.000   0      0      1
C0976            RECT_OPEN    7.917     500.000   0      0      1
C0977            RECT_OPEN    7.917     500.000   0      0      1
C0978            RECT_OPEN    7.917     500.000   0      0      1
C0979            RECT_OPEN    7.917     500.000   0      0      1
C0980            RECT_OPEN    7.917     500.000   0      0      1
C0981            RECT_OPEN    7.917     500.000   0      0      1
C0982            RECT_OPEN    7.917     500.000   0      0      1
C0983            RECT_OPEN    7.917     500.000   0      0      1
C0984            RECT_OPEN    7.917     500.000   0      0      1
C0985            RECT_OPEN    7.917     500.000   0      0      1
C0986            RECT_OPEN    7.917     500.000   0      0      1
C0987            RECT_OPEN    7.917     500.000   0      0      1
C0988            RECT_OPEN    7.917     500.000   0      0      1
C0989            RECT_OPEN    7.917     500.000   0      0      1
C0990            RECT_OPEN    7.917     500.000   0      0      1
C0991            RECT_OPEN    7.917     500.000   0      0      1
C0992            RECT_OPEN    7.917     500.000   0      0      1
C0993            RECT_OPEN    7.917     500.000   0      0      1
C0994            RECT_OPEN    7.917     500.000   0      0      1
C0995            RECT_OPEN    7.917     500.000   0      0      1
C0996            RECT_OPEN    7.917     500.000   0      0      1
C0997            RECT_OPEN    7.917     500.000   0      0      1
C0998            RECT_OPEN    7.917     500.000   0      0      1
C0999            RECT_OPEN    7.917     500.000   0      0      1

[INFLOWS]
;;Node           Constituent  TimeSeries  Type  Mfactor  Sfactor  Baseline  Pattern
N0000            FLOW         ""          FLOW  1.0      1.0      500.250000
N0001            FLOW         ""          FLOW  1.0      1.0      0.500000 
N0002            FLOW         ""          FLOW  1.0      1.0      0.500000 
N0003            FLOW         ""          FLOW  1.0      1.0      0.500000 
N0004            FLOW         ""          FLOW  1.0      1.0      0.500000 
N0005            FLOW         ""          FLOW  1.0      1.0      0.500000 
N0006            FLOW         ""          FLOW  1.0      1.0      0.500000 
N0007            FLOW         ""          FLOW  1.0      1.0      0.500000 
N0008            FLOW         ""          FLOW  1.0      1.0      0.500000 
N0009            FLOW         ""          FLOW  1.0      1.0      0.500000 
N0010            FLOW         ""          FLOW  1.0      1.0      0.500000 
N0011            FLOW         ""          FLOW  1.0      1.0      0.500000 
N0012            FLOW         ""          FLOW  1.0      1.0      0.500000 
N0013            FLOW         ""          FLOW  1.0      1.0      0.500000 
N0014            FLOW         ""          FLOW  1.0      1.0      0.500000 
N0015            FLOW         ""          FLOW  1.0      1.0      0.500000 
N0016            FLOW         ""          FLOW  1.0      1.0      0.500000 
N0017            FLOW         ""          FLOW  1.0      1.0      0.500000 
N0018            FLOW         ""          FLOW  1.0      1.0      0.500000 
N0019            FLOW         ""          FLOW  1.0      1.0      0.500000 
N0020            FLOW         ""          FLOW  1.0      1.0      0.500000 
N0021            FLOW         ""          FLOW  1.0      1.0      0.500000 
N0022            FLOW         ""          FLOW  1.0      1.0      0.500000 
N0023            FLOW         ""          FLOW  1.0      1.0      0.500000 
N0024            FLOW         ""          FLOW  1.0      1.0      0.500000 
N0025            FLOW         ""          FLOW  1.0      1.0      0.500000 
N0026            FLOW         ""          FLOW  1.0      1.0      0.500000 
N0027            FLOW         ""          FLOW  1.0      1.0      0.500000 
N0028            FLOW         ""          FLOW  1.0      1.0      0.500000 
N0029            FLOW         ""          FLOW  1.0      1.0      0.500000 
N0030            FLOW         ""          FLOW  1.0      1.0      0.500000 
N0031            FLOW         ""          FLOW  1.0      1.0      0.500000 
N0032            FLOW         ""          FLOW  1.0      1.0      0.500000 
N0033            FLOW         ""          FLOW  1.0      1.0      0.500000 
N0034            FLOW         ""          FLOW  1.0      1.0      0.500000 
N0035            FLOW         ""          FLOW  1.0      1.0      0.500000 
N0036            FLOW         ""          FLOW  1.0      1.0      0.500000 
N0037            FLOW         ""          FLOW  1.0      1.0      0.500000 
N0038            FLOW         ""          FLOW  1.0      1.0      0.500000 
N0039            FLOW         ""          FLOW  1.0      1.0      0.500000 
N0040            FLOW         ""          FLOW  1.0      1.0      0.500000 
N0041            FLOW         ""          FLOW  1.0      1.0      0.500000 
N0042            FLOW         ""          FLOW  1.0      1.0      0.500000 
N0043            FLOW         ""          FLOW  1.0      1.0      0.500000 
N0044            FLOW         ""          FLOW  1.0      1.0      0.500000 
N0045            FLOW         ""          FLOW  1.0      1.0      0.500000 
N0046            FLOW         ""          FLOW  1.0      1.0      0.500000 
N0047            FLOW         ""          FLOW  1.0      1.0      0.500000 
N0048            FLOW         ""          FLOW  1.0      1.0      0.500000 
N0049            FLOW         ""          FLOW  1.0      1.0      0.500000 
N0050            FLOW         ""          FLOW  1.0      1.0      0.500000 
N0051            FLOW         ""          FLOW  1.0      1.0      0.500000 
N0052            FLOW         ""          FLOW  1.0      1.0      0.500000 
N0053            FLOW         ""          FLOW  1.0      1.0      0.500000 
N0054            FLOW         ""          FLOW  1.0      1.0      0.500000 
N0055            FLOW         ""          FLOW  1.0      1.0      0.500000 
N0056            FLOW         ""          FLOW  1.0      1.0      0.500000 
N0057            FLOW         ""          FLOW  1.0      1.0      0.500000 
N0058            FLOW         ""          FLOW  1.0      1.0      0.500000 
N0059            FLOW         ""          FLOW  1.0      1.0      0.500000 
N0060            FLOW         ""          FLOW  1.0      1.0      0.500000 
N0061            FLOW         ""          FLOW  1.0      1.0      0.500000 
N0062            FLOW         ""          FLOW  1.0      1.0      0.500000 
N0063            FLOW         ""          FLOW  1.0      1.0      0.500000 
N0064            FLOW         ""          FLOW  1.0      1.0      0.500000 
N0065            FLOW         ""          FLOW  1.0      1.0      0.500000 
N0066            FLOW         ""          FLOW  1.0      1.0      0.500000 
N0067            FLOW         ""          FLOW  1.0      1.0      0.500000 
N0068            FLOW         ""          FLOW  1.0      1.0      0.500000 
N0069            FLOW         ""          FLOW  1.0      1.0      0.500000 
N0070            FLOW         ""          FLOW  1.0      1.0      0.500000 
N0071            FLOW         ""          FLOW  1.0      1.0      0.500000 
N0072            FLOW         ""          FLOW  1.0      1.0      0.500000 
N0073            FLOW         ""          FLOW  1.0      1.0      0.500000 
N0074            FLOW         ""          FLOW  1.0      1.0      0.500000 
N0075            FLOW         ""          FLOW  1.0      1.0      0.500000 
N0076            FLOW         ""          FLOW  1.0      1.0      0.500000 
N0077            FLOW         ""          FLOW  1.0      1.0      0.500000 
N0078            FLOW         ""          FLOW  1.0      1.0      0.500000 
N0079            FLOW         ""          FLOW  1.0      1.0      0.500000 
N0080            FLOW         ""          FLOW  1.0      1.0      0.500000 
N0081            FLOW         ""          FLOW  1.0      1.0      0.500000 
N0082            FLOW         ""          FLOW  1.0      1.0      0.500000 
N0083            FLOW         ""          FLOW  1.0      1.0      0.500000 
N0084            FLOW         ""          FLOW  1.0      1.0      0.500000 
N0085            FLOW         ""          FLOW  1.0      1.0      0.500000 
N0086            FLOW         ""          FLOW  1.0      1.0      0.500000 
N0087            FLOW         ""          FLOW  1.0      1.0      0.500000 
N0088            FLOW         ""          FLOW  1.0      1.0      0.500000 
N0089            FLOW         ""          FLOW  1.0      1.0      0.500000 
N0090            FLOW         ""          FLOW  1.0      1.0      0.500000 
N0091            FLOW         ""          FLOW  1.0      1.0      0.500000 
N0092            FLOW         ""          FLOW  1.0      1.0      0.500000 
N0093            FLOW         ""          FLOW  1.0      1.0      0.500000 
N0094            FLOW         ""          FLOW  1.0      1.0      0.500000 
N0095            FLOW         ""          FLOW  1.0      1.0      0.500000 
N0096            FLOW         ""          FLOW  1.0      1.0      0.500000 
N0097            FLOW         ""          FLOW  1.0      1.0      0.500000 
N0098            FLOW         ""          FLOW  1.0      1.0      0.500000 
N0099            FLOW         ""          FLOW  1.0      1.0      0.500000 
N0100            FLOW         ""          FLOW  1.0      1.0      0.500000 
N0101            FLOW         ""          FLOW  1.0      1.0      0.500000 
N0102            FLOW         ""          FLOW  1.0      1.0      0.500000 
N0103            FLOW         ""          FLOW  1.0      1.0      0.500000 
N0104            FLOW         ""          FLOW  1.0      1.0      0.500000 
N0105            FLOW         ""          FLOW  1.0      1.0      0.500000 
N0106            FLOW         ""          FLOW  1.0      1.0      0.500000 
N0107            FLOW         ""          FLOW  1.0      1.0      0.500000 
N0108            FLOW         ""          FLOW  1.0      1.0      0.500000 
N0109            FLOW         ""          FLOW  1.0      1.0      0.500000 
N0110            FLOW         ""          FLOW  1.0      1.0      0.500000 
N0111            FLOW         ""          FLOW  1.0      1.0      0.500000 
N0112            FLOW         ""          FLOW  1.0      1.0      0.500000 
N0113            FLOW         ""          FLOW  1.0      1.0      0.500000 
N0114            FLOW         ""          FLOW  1.0      1.0      0.500000 
N0115            FLOW         ""          FLOW  1.0      1.0      0.500000 
N0116            FLOW         ""          FLOW  1.0      1.0      0.500000 
N0117            FLOW         ""          FLOW  1.0      1.0      0.500000 
N0118            FLOW         ""          FLOW  1.0      1.0      0.500000 
N0119            FLOW         ""          FLOW  1.0      1.0      0.500000 
N0120            FLOW         ""          FLOW  1.0      1.0      0.500000 
N0121            FLOW         ""          FLOW  1.0      1.0      0.500000 
N0122            FLOW         ""          FLOW  1.0      1.0      0.500000 
N0123            FLOW         ""          FLOW  1.0      1.0      0.500000 
N0124            FLOW         ""          FLOW  1.0      1.0      0.500000 
N0125            FLOW         ""          FLOW  1.0      1.0      0.500000 
N0126            FLOW         ""          FLOW  1.0      1.0      0.500000 
N0127            FLOW         ""          FLOW  1.0      1.0      0.500000 
N0128            FLOW         ""          FLOW  1.0      1.0      0.500000 
N0129            FLOW         ""          FLOW  1.0      1.0      0.500000 
N0130            FLOW         ""          FLOW  1.0      1.0      0.500000 
N0131            FLOW         ""          FLOW  1.0      1.0      0.500000 
N0132            FLOW         ""          FLOW  1.0      1.0      0.500000 
N0133            FLOW         ""          FLOW  1.0      1.0      0.500000 
N0134            FLOW         ""          FLOW  1.0      1.0      0.500000 
N0135            FLOW         ""          FLOW  1.0      1.0      0.500000 
N0136            FLOW         ""          FLOW  1.0      1.0      0.500000 
N0137            FLOW         ""          FLOW  1.0      1.0      0.500000 
N0138            FLOW         ""          FLOW  1.0      1.0      0.500000 
N0139            FLOW         ""          FLOW  1.0      1.0      0.500000 
N0140            FLOW         ""          FLOW  1.0      1.0      0.500000 
N0141            FLOW         ""          FLOW  1.0      1.0      0.500000 
N0142            FLOW         ""          FLOW  1.0      1.0      0.500000 
N0143            FLOW         ""          FLOW  1.0      1.0      0.500000 
N0144            FLOW         ""          FLOW  1.0      1.0      0.500000 
N0145            FLOW         ""          FLOW  1.0      1.0      0.500000 
N0146            FLOW         ""          FLOW  1.0      1.0      0.500000 
N0147            FLOW         ""          FLOW  1.0      1.0      0.500000 
N0148            FLOW         ""          FLOW  1.0      1.0      0.500000 
N0149            FLOW         ""          FLOW  1.0      1.0      0.500000 
N0150            FLOW         ""          FLOW  1.0      1.0      0.500000 
N0151            FLOW         ""          FLOW  1.0      1.0      0.500000 
N0152            FLOW         ""          FLOW  1.0      1.0      0.500000 
N0153            FLOW         ""          FLOW  1.0      1.0      0.500000 
N0154            FLOW         ""          FLOW  1.0      1.0      0.500000 
N0155            FLOW         ""          FLOW  1.0      1.0      0.500000 
N0156            FLOW         ""          FLOW  1.0      1.0      0.500000 
N0157            FLOW         ""          FLOW  1.0      1.0      0.500000 
N0158            FLOW         ""          FLOW  1.0      1.0      0.500000 
N0159            FLOW         ""          FLOW  1.0      1.0      0.500000 
N0160            FLOW         ""          FLOW  1.0      1.0      0.500000 
N0161            FLOW         ""          FLOW  1.0      1.0      0.500000 
N0162            FLOW         ""          FLOW  1.0      1.0      0.500000 
N0163            FLOW         ""          FLOW  1.0      1.0      0.500000 
N0164            FLOW         ""          FLOW  1.0      1.0      0.500000 
N0165            FLOW         ""          FLOW  1.0      1.0      0.500000 
N0166            FLOW         ""          FLOW  1.0      1.0      0.500000 
N0167            FLOW         ""          FLOW  1.0      1.0      0.500000 
N0168            FLOW         ""          FLOW  1.0      1.0      0.500000 
N0169            FLOW         ""          FLOW  1.0      1.0      0.500000 
N0170            FLOW         ""          FLOW  1.0      1.0      0.500000 
N0171            FLOW         ""          FLOW  1.0      1.0      0.500000 
N0172            FLOW         ""          FLOW  1.0      1.0      0.500000 
N0173            FLOW         ""          FLOW  1.0      1.0      0.500000 
N0174            FLOW         ""          FLOW  1.0      1.0      0.500000 
N0175            FLOW         ""          FLOW  1.0      1.0      0.500000 
N0176            FLOW         ""          FLOW  1.0      1.0      0.500000 
N0177            FLOW         ""          FLOW  1.0      1.0      0.500000 
N0178            FLOW         ""          FLOW  1.0      1.0      0.500000 
N0179            FLOW         ""          FLOW  1.0      1.0      0.500000 
N0180            FLOW         ""          FLOW  1.0      1.0      0.500000 
N0181            FLOW         ""          FLOW  1.0      1.0      0.500000 
N0182            FLOW         ""          FLOW  1.0      1.0      0.500000 
N0183            FLOW         ""          FLOW  1.0      1.0      0.500000 
N0184            FLOW         ""          FLOW  1.0      1.0      0.500000 
N0185            FLOW         ""          FLOW  1.0      1.0      0.500000 
N0186            FLOW         ""          FLOW  1.0      1.0      0.500000 
N0187            FLOW         ""          FLOW  1.0      1.0      0.500000 
N0188            FLOW         ""          FLOW  1.0      1.0      0.500000 
N0189            FLOW         ""          FLOW  1.0      1.0      0.500000 
N0190            FLOW         ""          FLOW  1.0      1.0      0.500000 
N0191            FLOW         ""          FLOW  1.0      1.0      0.500000 
N0192            FLOW         ""          FLOW  1.0      1.0      0.500000 
N0193            FLOW         ""          FLOW  1.0      1.0      0.500000 
N0194            FLOW         ""          FLOW  1.0      1.0      0.500000 
N0195            FLOW         ""          FLOW  1.0      1.0      0.500000 
N0196            FLOW         ""          FLOW  1.0      1.0      0.500000 
N0197            FLOW         ""          FLOW  1.0      1.0      0.500000 
N0198            FLOW         ""          FLOW  1.0      1.0      0.500000 
N0199            FLOW         ""          FLOW  1.0      1.0      0.500000 
N0200            FLOW         ""          FLOW  1.0      1.0      0.500000 
N0201            FLOW         ""          FLOW  1.0      1.0      0.500000 
N0202            FLOW         ""          FLOW  1.0      1.0      0.500000 
N0203            FLOW         ""          FLOW  1.0      1.0      0.500000 
N0204            FLOW         ""          FLOW  1.0      1.0      0.500000 
N0205            FLOW         ""          FLOW  1.0      1.0      0.500000 
N0206            FLOW         ""          FLOW  1.0      1.0      0.500000 
N0207            FLOW         ""          FLOW  1.0      1.0      0.500000 
N0208            FLOW         ""          FLOW  1.0      1.0      0.500000 
N0209            FLOW         ""          FLOW  1.0      1.0      0.500000 
N0210            FLOW         ""          FLOW  1.0      1.0      0.500000 
N0211            FLOW         ""          FLOW  1.0      1.0      0.500000 
N0212            FLOW         ""          FLOW  1.0      1.0      0.500000 
N0213            FLOW         ""          FLOW  1.0      1.0      0.500000 
N0214            FLOW         ""          FLOW  1.0      1.0      0.500000 
N0215            FLOW         ""          FLOW  1.0      1.0      0.500000 
N0216            FLOW         ""          FLOW  1.0      1.0      0.500000 
N0217            FLOW         ""          FLOW  1.0      1.0      0.500000 
N0218            FLOW         ""          FLOW  1.0      1.0      0.500000 
N0219            FLOW         ""          FLOW  1.0      1.0      0.500000 
N0220            FLOW         ""          FLOW  1.0      1.0      0.500000 
N0221            FLOW         ""          FLOW  1.0      1.0      0.500000 
N0222            FLOW         ""          FLOW  1.0      1.0      0.500000 
N0223            FLOW         ""          FLOW  1.0      1.0      0.500000 
N0224            FLOW         ""          FLOW  1.0      1.0      0.500000 
N0225            FLOW         ""          FLOW  1.0      1.0      0.500000 
N0226            FLOW         ""          FLOW  1.0      1.0      0.500000 
N0227            FLOW         ""          FLOW  1.0      1.0      0.500000 
N0228            FLOW         ""          FLOW  1.0      1.0      0.500000 
N0229            FLOW         ""          FLOW  1.0      1.0      0.500000 
N0230            FLOW         ""          FLOW  1.0      1.0      0.500000 
N0231            FLOW         ""          FLOW  1.0      1.0      0.500000 
N0232            FLOW         ""          FLOW  1.0      1.0      0.500000 
N0233            FLOW         ""          FLOW  1.0      1.0      0.500000 
N0234            FLOW         ""          FLOW  1.0      1.0      0.500000 
N0235            FLOW         ""          FLOW  1.0      1.0      0.500000 
N0236            FLOW         ""          FLOW  1.0      1.0      0.500000 
N0237            FLOW         ""          FLOW  1.0      1.0      0.500000 
N0238            FLOW         ""          FLOW  1.0      1.0      0.500000 
N0239            FLOW         ""          FLOW  1.0      1.0      0.500000 
N0240            FLOW         ""          FLOW  1.0      1.0      0.500000 
N0241            FLOW         ""          FLOW  1.0      1.0      0.500000 
N0242            FLOW         ""          FLOW  1.0      1.0      0.500000 
N0243            FLOW         ""          FLOW  1.0      1.0      0.500000 
N0244            FLOW         ""          FLOW  1.0      1.0      0.500000 
N0245            FLOW         ""          FLOW  1.0      1.0      0.500000 
N0246            FLOW         ""          FLOW  1.0      1.0      0.500000 
N0247            FLOW         ""          FLOW  1.0      1.0      0.500000 
N0248            FLOW         ""          FLOW  1.0      1.0      0.500000 
N0249            FLOW         ""          FLOW  1.0      1.0      0.500000 
N0250            FLOW         ""          FLOW  1.0      1.0      0.500000 
N0251            FLOW         ""          FLOW  1.0      1.0      0.500000 
N0252            FLOW         ""          FLOW  1.0      1.0      0.500000 
N0253            FLOW         ""          FLOW  1.0      1.0      0.500000 
N0254            FLOW         ""          FLOW  1.0      1.0      0.500000 
N0255            FLOW         ""          FLOW  1.0      1.0      0.500000 
N0256            FLOW         ""          FLOW  1.0      1.0      0.500000 
N0257            FLOW         ""          FLOW  1.0      1.0      0.500000 
N0258            FLOW         ""          FLOW  1.0      1.0      0.500000 
N0259            FLOW         ""          FLOW  1.0      1.0      0.500000 
N0260            FLOW         ""          FLOW  1.0      1.0      0.500000 
N0261            FLOW         ""          FLOW  1.0      1.0      0.500000 
N0262            FLOW         ""          FLOW  1.0      1.0      0.500000 
N0263            FLOW         ""          FLOW  1.0      1.0      0.500000 
N0264            FLOW         ""          FLOW  1.0      1.0      0.500000 
N0265            FLOW         ""          FLOW  1.0      1.0      0.500000 
N0266            FLOW         ""          FLOW  1.0      1.0      0.500000 
N0267            FLOW         ""          FLOW  1.0      1.0      0.500000 
N0268            FLOW         ""          FLOW  1.0      1.0      0.500000 
N0269            FLOW         ""          FLOW  1.0      1.0      0.500000 
N0270            FLOW         ""          FLOW  1.0      1.0      0.500000 
N0271            FLOW         ""          FLOW  1.0      1.0      0.500000 
N0272            FLOW         ""          FLOW  1.0      1.0      0.500000 
N0273            FLOW         ""          FLOW  1.0      1.0      0.500000 
N0274            FLOW         ""          FLOW  1.0      1.0      0.500000 
N0275            FLOW         ""          FLOW  1.0      1.0      0.500000 
N0276            FLOW         ""          FLOW  1.0      1.0      0.500000 
N0277            FLOW         ""          FLOW  1.0      1.0      0.500000 
N0278            FLOW         ""          FLOW  1.0      1.0      0.500000 
N0279            FLOW         ""          FLOW  1.0      1.0      0.500000 
N0280            FLOW         ""          FLOW  1.0      1.0      0.500000 
N0281            FLOW         ""          FLOW  1.0      1.0      0.500000 
N0282            FLOW         ""          FLOW  1.0      1.0      0.500000 
N0283            FLOW         ""          FLOW  1.0      1.0      0.500000 
N0284            FLOW         ""          FLOW  1.0      1.0      0.500000 
N0285            FLOW         ""          FLOW  1.0      1.0      0.500000 
N0286            FLOW         ""          FLOW  1.0      1.0      0.500000 
N0287            FLOW         ""          FLOW  1.0      1.0      0.500000 
N0288            FLOW         ""          FLOW  1.0      1.0      0.500000 
N0289            FLOW         ""          FLOW  1.0      1.0      0.500000 
N0290            FLOW         ""          FLOW  1.0      1.0      0.500000 
N0291            FLOW         ""          FLOW  1.0      1.0      0.500000 
N0292            FLOW         ""          FLOW  1.0      1.0      0.500000 
N0293            FLOW         ""          FLOW  1.0      1.0      0.500000 
N0294            FLOW         ""          FLOW  1.0      1.0      0.500000 
N0295            FLOW         ""          FLOW  1.0      1.0      0.500000 
N0296            FLOW         ""          FLOW  1.0      1.0      0.500000 
N0297            FLOW         ""          FLOW  1.0      1.0      0.500000 
N0298            FLOW         ""          FLOW  1.0      1.0      0.500000 
N0299            FLOW         ""          FLOW  1.0      1.0      0.500000 
N0300            FLOW         ""          FLOW  1.0      1.0      0.500000 
N0301            FLOW         ""          FLOW  1.0      1.0      0.500000 
N0302            FLOW         ""          FLOW  1.0      1.0      0.500000 
N0303            FLOW         ""          FLOW  1.0      1.0      0.500000 
N0304            FLOW         ""          FLOW  1.0      1.0      0.500000 
N0305            FLOW         ""          FLOW  1.0      1.0      0.500000 
N0306            FLOW         ""          FLOW  1.0      1.0      0.500000 
N0307            FLOW         ""          FLOW  1.0      1.0      0.500000 
N0308            FLOW         ""          FLOW  1.0      1.0      0.500000 
N0309            FLOW         ""          FLOW  1.0      1.0      0.500000 
N0310            FLOW         ""          FLOW  1.0      1.0      0.500000 
N0311            FLOW         ""          FLOW  1.0      1.0      0.500000 
N0312            FLOW         ""          FLOW  1.0      1.0      0.500000 
N0313            FLOW         ""          FLOW  1.0      1.0      0.500000 
N0314            FLOW         ""          FLOW  1.0      1.0      0.500000 
N0315            FLOW         ""          FLOW  1.0      1.0      0.500000 
N0316            FLOW         ""          FLOW  1.0      1.0      0.500000 
N0317            FLOW         ""          FLOW  1.0      1.0      0.500000 
N0318            FLOW         ""          FLOW  1.0      1.0      0.500000 
N0319            FLOW         ""          FLOW  1.0      1.0      0.500000 
N0320            FLOW         ""          FLOW  1.0      1.0      0.500000 
N0321            FLOW         ""          FLOW  1.0      1.0      0.500000 
N0322            FLOW         ""          FLOW  1.0      1.0      0.500000 
N0323            FLOW         ""          FLOW  1.0      1.0      0.500000 
N0324            FLOW         ""          FLOW  1.0      1.0      0.500000 
N0325            FLOW         ""          FLOW  1.0      1.0      0.500000 
N0326            FLOW         ""          FLOW  1.0      1.0      0.500000 
N0327            FLOW         ""          FLOW  1.0      1.0      0.500000 
N0328            FLOW         ""          FLOW  1.0      1.0      0.500000 
N0329            FLOW         ""          FLOW  1.0      1.0      0.500000 
N0330            FLOW         ""          FLOW  1.0      1.0      0.500000 
N0331            FLOW         ""          FLOW  1.0      1.0      0.500000 
N0332            FLOW         ""          FLOW  1.0      1.0      0.500000 
N0333            FLOW         ""          FLOW  1.0      1.0      0.500000 
N0334            FLOW         ""          FLOW  1.0      1.0      0.500000 
N0335            FLOW         ""          FLOW  1.0      1.0      0.500000 
N0336            FLOW         ""          FLOW  1.0      1.0      0.500000 
N0337            FLOW         ""          FLOW  1.0      1.0      0.500000 
N0338            FLOW         ""          FLOW  1.0      1.0      0.500000 
N0339            FLOW         ""          FLOW  1.0      1.0      0.500000 
N0340            FLOW         ""          FLOW  1.0      1.0      0.500000 
N0341            FLOW         ""          FLOW  1.0      1.0      0.500000 
N0342            FLOW         ""          FLOW  1.0      1.0      0.500000 
N0343            FLOW         ""          FLOW  1.0      1.0      0.500000 
N0344            FLOW         ""          FLOW  1.0      1.0      0.500000 
N0345            FLOW         ""          FLOW  1.0      1.0      0.500000 
N0346            FLOW         ""          FLOW  1.0      1.0      0.500000 
N0347            FLOW         ""          FLOW  1.0      1.0      0.500000 
N0348            FLOW         ""          FLOW  1.0      1.0      0.500000 
N0349            FLOW         ""          FLOW  1.0      1.0      0.500000 
N0350            FLOW         ""          FLOW  1.0      1.0      0.500000 
N0351            FLOW         ""          FLOW  1.0      1.0      0.500000 
N0352            FLOW         ""          FLOW  1.0      1.0      0.500000 
N0353            FLOW         ""          FLOW  1.0      1.0      0.500000 
N0354            FLOW         ""          FLOW  1.0      1.0      0.500000 
N0355            FLOW         ""          FLOW  1.0      1.0      0.500000 
N0356            FLOW         ""          FLOW  1.0      1.0      0.500000 
N0357            FLOW         ""          FLOW  1.0      1.0      0.500000 
N0358            FLOW         ""          FLOW  1.0      1.0      0.500000 
N0359            FLOW         ""          FLOW  1.0      1.0      0.500000 
N0360            FLOW         ""          FLOW  1.0      1.0      0.500000 
N0361            FLOW         ""          FLOW  1.0      1.0      0.500000 
N0362            FLOW         ""          FLOW  1.0      1.0      0.500000 
N0363            FLOW         ""          FLOW  1.0      1.0      0.500000 
N0364            FLOW         ""          FLOW  1.0      1.0      0.500000 
N0365            FLOW         ""          FLOW  1.0      1.0      0.500000 
N0366            FLOW         ""          FLOW  1.0      1.0      0.500000 
N0367            FLOW         ""          FLOW  1.0      1.0      0.500000 
N0368            FLOW         ""          FLOW  1.0      1.0      0.500000 
N0369            FLOW         ""          FLOW  1.0      1.0      0.500000 
N0370            FLOW         ""          FLOW  1.0      1.0      0.500000 
N0371            FLOW         ""          FLOW  1.0      1.0      0.500000 
N0372            FLOW         ""          FLOW  1.0      1.0      0.500000 
N0373            FLOW         ""          FLOW  1.0      1.0      0.500000 
N0374            FLOW         ""          FLOW  1.0      1.0      0.500000 
N0375            FLOW         ""          FLOW  1.0      1.0      0.500000 
N0376            FLOW         ""          FLOW  1.0      1.0      0.500000 
N0377            FLOW         ""          FLOW  1.0      1.0      0.500000 
N0378            FLOW         ""          FLOW  1.0      1.0      0.500000 
N0379            FLOW         ""          FLOW  1.0      1.0      0.500000 
N0380            FLOW         ""          FLOW  1.0      1.0      0.500000 
N0381            FLOW         ""          FLOW  1.0      1.0      0.500000 
N0382            FLOW         ""          FLOW  1.0      1.0      0.500000 
N0383            FLOW         ""          FLOW  1.0      1.0      0.500000 
N0384            FLOW         ""          FLOW  1.0      1.0      0.500000 
N0385            FLOW         ""          FLOW  1.0      1.0      0.500000 
N0386            FLOW         ""          FLOW  1.0      1.0      0.500000 
N0387            FLOW         ""          FLOW  1.0      1.0      0.500000 
N0388            FLOW         ""          FLOW  1.0      1.0      0.500000 
N0389            FLOW         ""          FLOW  1.0      1.0      0.500000 
N0390            FLOW         ""          FLOW  1.0      1.0      0.500000 
N0391            FLOW         ""          FLOW  1.0      1.0      0.500000 
N0392            FLOW         ""          FLOW  1.0      1.0      0.500000 
N0393            FLOW         ""          FLOW  1.0      1.0      0.500000 
N0394            FLOW         ""          FLOW  1.0      1.0      0.500000 
N0395            FLOW         ""          FLOW  1.0      1.0      0.500000 
N0396            FLOW         ""          FLOW  1.0      1.0      0.500000 
N0397            FLOW         ""          FLOW  1.0      1.0      0.500000 
N0398            FLOW         ""          FLOW  1.0      1.0      0.500000 
N0399            FLOW         ""          FLOW  1.0      1.0      0.500000 
N0400            FLOW         ""          FLOW  1.0      1.0      0.500000 
N0401            FLOW         ""          FLOW  1.0      1.0      0.500000 
N0402            FLOW         ""          FLOW  1.0      1.0      0.500000 
N0403            FLOW         ""          FLOW  1.0      1.0      0.500000 
N0404            FLOW         ""          FLOW  1.0      1.0      0.500000 
N0405            FLOW         ""          FLOW  1.0      1.0      0.500000 
N0406            FLOW         ""          FLOW  1.0      1.0      0.500000 
N0407            FLOW         ""          FLOW  1.0      1.0      0.500000 
N0408            FLOW         ""          FLOW  1.0      1.0      0.500000 
N0409            FLOW         ""          FLOW  1.0      1.0      0.500000 
N0410            FLOW         ""          FLOW  1.0      1.0      0.500000 
N0411            FLOW         ""          FLOW  1.0      1.0      0.500000 
N0412            FLOW         ""          FLOW  1.0      1.0      0.500000 
N0413            FLOW         ""          FLOW  1.0      1.0      0.500000 
N0414            FLOW         ""          FLOW  1.0      1.0      0.500000 
N0415            FLOW         ""          FLOW  1.0      1.0      0.500000 
N0416            FLOW         ""          FLOW  1.0      1.0      0.500000 
N0417            FLOW         ""          FLOW  1.0      1.0      0.500000 
N0418            FLOW         ""          FLOW  1.0      1.0      0.500000 
N0419            FLOW         ""          FLOW  1.0      1.0      0.500000 
N0420            FLOW         ""          FLOW  1.0      1.0      0.500000 
N0421            FLOW         ""          FLOW  1.0      1.0      0.500000 
N0422            FLOW         ""          FLOW  1.0      1.0      0.500000 
N0423            FLOW         ""          FLOW  1.0      1.0      0.500000 
N0424            FLOW         ""          FLOW  1.0      1.0      0.500000 
N0425            FLOW         ""          FLOW  1.0      1.0      0.500000 
N0426            FLOW         ""          FLOW  1.0      1.0      0.500000 
N0427            FLOW         ""          FLOW  1.0      1.0      0.500000 
N0428            FLOW         ""          FLOW  1.0      1.0      0.500000 
N0429            FLOW         ""          FLOW  1.0      1.0      0.500000 
N0430            FLOW         ""          FLOW  1.0      1.0      0.500000 
N0431            FLOW         ""          FLOW  1.0      1.0      0.500000 
N0432            FLOW         ""          FLOW  1.0      1.0      0.500000 
N0433            FLOW         ""          FLOW  1.0      1.0      0.500000 
N0434            FLOW         ""          FLOW  1.0      1.0      0.500000 
N0435            FLOW         ""          FLOW  1.0      1.0      0.500000 
N0436            FLOW         ""          FLOW  1.0      1.0      0.500000 
N0437            FLOW         ""          FLOW  1.0      1.0      0.500000 
N0438            FLOW         ""          FLOW  1.0      1.0      0.500000 
N0439            FLOW         ""          FLOW  1.0      1.0      0.500000 
N0440            FLOW         ""          FLOW  1.0      1.0      0.500000 
N0441            FLOW         ""          FLOW  1.0      1.0      0.500000 
N0442            FLOW         ""          FLOW  1.0      1.0      0.500000 
N0443            FLOW         ""          FLOW  1.0      1.0      0.500000 
N0444            FLOW         ""          FLOW  1.0      1.0      0.500000 
N0445            FLOW         ""          FLOW  1.0      1.0      0.500000 
N0446            FLOW         ""          FLOW  1.0      1.0      0.500000 
N0447            FLOW         ""          FLOW  1.0      1.0      0.500000 
N0448            FLOW         ""          FLOW  1.0      1.0      0.500000 
N0449            FLOW         ""          FLOW  1.0      1.0      0.500000 
N0450            FLOW         ""          FLOW  1.0      1.0      0.500000 
N0451            FLOW         ""          FLOW  1.0      1.0      0.500000 
N0452            FLOW         ""          FLOW  1.0      1.0      0.500000 
N0453            FLOW         ""          FLOW  1.0      1.0      0.500000 
N0454            FLOW         ""          FLOW  1.0      1.0      0.500000 
N0455            FLOW         ""          FLOW  1.0      1.0      0.500000 
N0456            FLOW         ""          FLOW  1.0      1.0      0.500000 
N0457            FLOW         ""          FLOW  1.0      1.0      0.500000 
N0458            FLOW         ""          FLOW  1.0      1.0      0.500000 
N0459            FLOW         ""          FLOW  1.0      1.0      0.500000 
N0460            FLOW         ""          FLOW  1.0      1.0      0.500000 
N0461            FLOW         ""          FLOW  1.0      1.0      0.500000 
N0462            FLOW         ""          FLOW  1.0      1.0      0.500000 
N0463            FLOW         ""          FLOW  1.0      1.0      0.500000 
N0464            FLOW         ""          FLOW  1.0      1.0      0.500000 
N0465            FLOW         ""          FLOW  1.0      1.0      0.500000 
N0466            FLOW         ""          FLOW  1.0      1.0      0.500000 
N0467            FLOW         ""          FLOW  1.0      1.0      0.500000 
N0468            FLOW         ""          FLOW  1.0      1.0      0.500000 
N0469            FLOW         ""          FLOW  1.0      1.0      0.500000 
N0470            FLOW         ""          FLOW  1.0      1.0      0.500000 
N0471            FLOW         ""          FLOW  1.0      1.0      0.500000 
N0472            FLOW         ""          FLOW  1.0      1.0      0.500000 
N0473            FLOW         ""          FLOW  1.0      1.0      0.500000 
N0474            FLOW         ""          FLOW  1.0      1.0      0.500000 
N0475            FLOW         ""          FLOW  1.0      1.0      0.500000 
N0476            FLOW         ""          FLOW  1.0      1.0      0.500000 
N0477            FLOW         ""          FLOW  1.0      1.0      0.500000 
N0478            FLOW         ""          FLOW  1.0      1.0      0.500000 
N0479            FLOW         ""          FLOW  1.0      1.0      0.500000 
N0480            FLOW         ""          FLOW  1.0      1.0      0.500000 
N0481            FLOW         ""          FLOW  1.0      1.0      0.500000 
N0482            FLOW         ""          FLOW  1.0      1.0      0.500000 
N0483            FLOW         ""          FLOW  1.0      1.0      0.500000 
N0484            FLOW         ""          FLOW  1.0      1.0      0.500000 
N0485            FLOW         ""          FLOW  1.0      1.0      0.500000 
N0486            FLOW         ""          FLOW  1.0      1.0      0.500000 
N0487            FLOW         ""          FLOW  1.0      1.0      0.500000 
N0488            FLOW         ""          FLOW  1.0      1.0      0.500000 
N0489            FLOW         ""          FLOW  1.0      1.0      0.500000 
N0490            FLOW         ""          FLOW  1.0      1.0      0.500000 
N0491            FLOW         ""          FLOW  1.0      1.0      0.500000 
N0492            FLOW         ""          FLOW  1.0      1.0      0.500000 
N0493            FLOW         ""          FLOW  1.0      1.0      0.500000 
N0494            FLOW         ""          FLOW  1.0      1.0      0.500000 
N0495            FLOW         ""          FLOW  1.0      1.0      0.500000 
N0496            FLOW         ""          FLOW  1.0      1.0      0.500000 
N0497            FLOW         ""          FLOW  1.0      1.0      0.500000 
N0498            FLOW         ""          FLOW  1.0      1.0      0.500000 
N0499            FLOW         ""          FLOW  1.0      1.0      0.500000 
N0500            FLOW         ""          FLOW  1.0      1.0      0.500000 
N0501            FLOW         ""          FLOW  1.0      1.0      0.500000 
N0502            FLOW         ""          FLOW  1.0      1.0      0.500000 
N0503            FLOW         ""          FLOW  1.0      1.0      0.500000 
N0504            FLOW         ""          FLOW  1.0      1.0      0.500000 
N0505            FLOW         ""          FLOW  1.0      1.0      0.500000 
N0506            FLOW         ""          FLOW  1.0      1.0      0.500000 
N0507            FLOW         ""          FLOW  1.0      1.0      0.500000 
N0508            FLOW         ""          FLOW  1.0      1.0      0.500000 
N0509            FLOW         ""          FLOW  1.0      1.0      0.500000 
N0510            FLOW         ""          FLOW  1.0      1.0      0.500000 
N0511            FLOW         ""          FLOW  1.0      1.0      0.500000 
N0512            FLOW         ""          FLOW  1.0      1.0      0.500000 
N0513            FLOW         ""          FLOW  1.0      1.0      0.500000 
N0514            FLOW         ""          FLOW  1.0      1.0      0.500000 
N0515            FLOW         ""          FLOW  1.0      1.0      0.500000 
N0516            FLOW         ""          FLOW  1.0      1.0      0.500000 
N0517            FLOW         ""          FLOW  1.0      1.0      0.500000 
N0518            FLOW         ""          FLOW  1.0      1.0      0.500000 
N0519            FLOW         ""          FLOW  1.0      1.0      0.500000 
N0520            FLOW         ""          FLOW  1.0      1.0      0.500000 
N0521            FLOW         ""          FLOW  1.0      1.0      0.500000 
N0522            FLOW         ""          FLOW  1.0      1.0      0.500000 
N0523            FLOW         ""          FLOW  1.0      1.0      0.500000 
N0524            FLOW         ""          FLOW  1.0      1.0      0.500000 
N0525            FLOW         ""          FLOW  1.0      1.0      0.500000 
N0526            FLOW         ""          FLOW  1.0      1.0      0.500000 
N0527            FLOW         ""          FLOW  1.0      1.0      0.500000 
N0528            FLOW         ""          FLOW  1.0      1.0      0.500000 
N0529            FLOW         ""          FLOW  1.0      1.0      0.500000 
N0530            FLOW         ""          FLOW  1.0      1.0      0.500000 
N0531            FLOW         ""          FLOW  1.0      1.0      0.500000 
N0532            FLOW         ""          FLOW  1.0      1.0      0.500000 
N0533            FLOW         ""          FLOW  1.0      1.0      0.500000 
N0534            FLOW         ""          FLOW  1.0      1.0      0.500000 
N0535            FLOW         ""          FLOW  1.0      1.0      0.500000 
N0536            FLOW         ""          FLOW  1.0      1.0      0.500000 
N0537            FLOW         ""          FLOW  1.0      1.0      0.500000 
N0538            FLOW         ""          FLOW  1.0      1.0      0.500000 
N0539            FLOW         ""          FLOW  1.0      1.0      0.500000 
N0540            FLOW         ""          FLOW  1.0      1.0      0.500000 
N0541            FLOW         ""          FLOW  1.0      1.0      0.500000 
N0542            FLOW         ""          FLOW  1.0      1.0      0.500000 
N0543            FLOW         ""          FLOW  1.0      1.0      0.500000 
N0544            FLOW         ""          FLOW  1.0      1.0      0.500000 
N0545            FLOW         ""          FLOW  1.0      1.0      0.500000 
N0546            FLOW         ""          FLOW  1.0      1.0      0.500000 
N0547            FLOW         ""          FLOW  1.0      1.0      0.500000 
N0548            FLOW         ""          FLOW  1.0      1.0      0.500000 
N0549            FLOW         ""          FLOW  1.0      1.0      0.500000 
N0550            FLOW         ""          FLOW  1.0      1.0      0.500000 
N0551            FLOW         ""          FLOW  1.0      1.0      0.500000 
N0552            FLOW         ""          FLOW  1.0      1.0      0.500000 
N0553            FLOW         ""          FLOW  1.0      1.0      0.500000 
N0554            FLOW         ""          FLOW  1.0      1.0      0.500000 
N0555            FLOW         ""          FLOW  1.0      1.0      0.500000 
N0556            FLOW         ""          FLOW  1.0      1.0      0.500000 
N0557            FLOW         ""          FLOW  1.0      1.0      0.500000 
N0558            FLOW         ""          FLOW  1.0      1.0      0.500000 
N0559            FLOW         ""          FLOW  1.0      1.0      0.500000 
N0560            FLOW         ""          FLOW  1.0      1.0      0.500000 
N0561            FLOW         ""          FLOW  1.0      1.0      0.500000 
N0562            FLOW         ""          FLOW  1.0      1.0      0.500000 
N0563            FLOW         ""          FLOW  1.0      1.0      0.500000 
N0564            FLOW         ""          FLOW  1.0      1.0      0.500000 
N0565            FLOW         ""          FLOW  1.0      1.0      0.500000 
N0566            FLOW         ""          FLOW  1.0      1.0      0.500000 
N0567            FLOW         ""          FLOW  1.0      1.0      0.500000 
N0568            FLOW         ""          FLOW  1.0      1.0      0.500000 
N0569            FLOW         ""          FLOW  1.0      1.0      0.500000 
N0570            FLOW         ""          FLOW  1.0      1.0      0.500000 
N0571            FLOW         ""          FLOW  1.0      1.0      0.500000 
N0572            FLOW         ""          FLOW  1.0      1.0      0.500000 
N0573            FLOW         ""          FLOW  1.0      1.0      0.500000 
N0574            FLOW         ""          FLOW  1.0      1.0      0.500000 
N0575            FLOW         ""          FLOW  1.0      1.0      0.500000 
N0576            FLOW         ""          FLOW  1.0      1.0      0.500000 
N0577            FLOW         ""          FLOW  1.0      1.0      0.500000 
N0578            FLOW         ""          FLOW  1.0      1.0      0.500000 
N0579            FLOW         ""          FLOW  1.0      1.0      0.500000 
N0580            FLOW         ""          FLOW  1.0      1.0      0.500000 
N0581            FLOW         ""          FLOW  1.0      1.0      0.500000 
N0582            FLOW         ""          FLOW  1.0      1.0      0.500000 
N0583            FLOW         ""          FLOW  1.0      1.0      0.500000 
N0584            FLOW         ""          FLOW  1.0      1.0      0.500000 
N0585            FLOW         ""          FLOW  1.0      1.0      0.500000 
N0586            FLOW         ""          FLOW  1.0      1.0      0.500000 
N0587            FLOW         ""          FLOW  1.0      1.0      0.500000 
N0588            FLOW         ""          FLOW  1.0      1.0      0.500000 
N0589            FLOW         ""          FLOW  1.0      1.0      0.500000 
N0590            FLOW         ""          FLOW  1.0      1.0      0.500000 
N0591            FLOW         ""          FLOW  1.0      1.0      0.500000 
N0592            FLOW         ""          FLOW  1.0      1.0      0.500000 
N0593            FLOW         ""          FLOW  1.0      1.0      0.500000 
N0594            FLOW         ""          FLOW  1.0      1.0      0.500000 
N0595            FLOW         ""          FLOW  1.0      1.0      0.500000 
N0596            FLOW         ""          FLOW  1.0      1.0      0.500000 
N0597            FLOW         ""          FLOW  1.0      1.0      0.500000 
N0598            FLOW         ""          FLOW  1.0      1.0      0.500000 
N0599            FLOW         ""          FLOW  1.0      1.0      0.500000 
N0600            FLOW         ""          FLOW  1.0      1.0      0.500000 
N0601            FLOW         ""          FLOW  1.0      1.0      0.500000 
N0602            FLOW         ""          FLOW  1.0      1.0      0.500000 
N0603            FLOW         ""          FLOW  1.0      1.0      0.500000 
N0604            FLOW         ""          FLOW  1.0      1.0      0.500000 
N0605            FLOW         ""          FLOW  1.0      1.0      0.500000 
N0606            FLOW         ""          FLOW  1.0      1.0      0.500000 
N0607            FLOW         ""          FLOW  1.0      1.0      0.500000 
N0608            FLOW         ""          FLOW  1.0      1.0      0.500000 
N0609            FLOW         ""          FLOW  1.0      1.0      0.500000 
N0610            FLOW         ""          FLOW  1.0      1.0      0.500000 
N0611            FLOW         ""          FLOW  1.0      1.0      0.500000 
N0612            FLOW         ""          FLOW  1.0      1.0      0.500000 
N0613            FLOW         ""          FLOW  1.0      1.0      0.500000 
N0614            FLOW         ""          FLOW  1.0      1.0      0.500000 
N0615            FLOW         ""          FLOW  1.0      1.0      0.500000 
N0616            FLOW         ""          FLOW  1.0      1.0      0.500000 
N0617            FLOW         ""          FLOW  1.0      1.0      0.500000 
N0618            FLOW         ""          FLOW  1.0      1.0      0.500000 
N0619            FLOW         ""          FLOW  1.0      1.0      0.500000 
N0620            FLOW         ""          FLOW  1.0      1.0      0.500000 
N0621            FLOW         ""          FLOW  1.0      1.0      0.500000 
N0622            FLOW         ""          FLOW  1.0      1.0      0.500000 
N0623            FLOW         ""          FLOW  1.0      1.0      0.500000 
N0624            FLOW         ""          FLOW  1.0      1.0      0.500000 
N0625            FLOW         ""          FLOW  1.0      1.0      0.500000 
N0626            FLOW         ""          FLOW  1.0      1.0      0.500000 
N0627            FLOW         ""          FLOW  1.0      1.0      0.500000 
N0628            FLOW         ""          FLOW  1.0      1.0      0.500000 
N0629            FLOW         ""          FLOW  1.0      1.0      0.500000 
N0630            FLOW         ""          FLOW  1.0      1.0      0.500000 
N0631            FLOW         ""          FLOW  1.0      1.0      0.500000 
N0632            FLOW         ""          FLOW  1.0      1.0      0.500000 
N0633            FLOW         ""          FLOW  1.0      1.0      0.500000 
N0634            FLOW         ""          FLOW  1.0      1.0      0.500000 
N0635            FLOW         ""          FLOW  1.0      1.0      0.500000 
N0636            FLOW         ""          FLOW  1.0      1.0      0.500000 
N0637            FLOW         ""          FLOW  1.0      1.0      0.500000 
N0638            FLOW         ""          FLOW  1.0      1.0      0.500000 
N0639            FLOW         ""          FLOW  1.0      1.0      0.500000 
N0640            FLOW         ""          FLOW  1.0      1.0      0.500000 
N0641            FLOW         ""          FLOW  1.0      1.0      0.500000 
N0642            FLOW         ""          FLOW  1.0      1.0      0.500000 
N0643            FLOW         ""          FLOW  1.0      1.0      0.500000 
N0644            FLOW         ""          FLOW  1.0      1.0      0.500000 
N0645            FLOW         ""          FLOW  1.0      1.0      0.500000 
N0646            FLOW         ""          FLOW  1.0      1.0      0.500000 
N0647            FLOW         ""          FLOW  1.0      1.0      0.500000 
N0648            FLOW         ""          FLOW  1.0      1.0      0.500000 
N0649            FLOW         ""          FLOW  1.0      1.0      0.500000 
N0650            FLOW         ""          FLOW  1.0      1.0      0.500000 
N0651            FLOW         ""          FLOW  1.0      1.0      0.500000 
N0652            FLOW         ""          FLOW  1.0      1.0      0.500000 
N0653            FLOW         ""          FLOW  1.0      1.0      0.500000 
N0654            FLOW         ""          FLOW  1.0      1.0      0.500000 
N0655            FLOW         ""          FLOW  1.0      1.0      0.500000 
N0656            FLOW         ""          FLOW  1.0      1.0      0.500000 
N0657            FLOW         ""          FLOW  1.0      1.0      0.500000 
N0658            FLOW         ""          FLOW  1.0      1.0      0.500000 
N0659            FLOW         ""          FLOW  1.0      1.0      0.500000 
N0660            FLOW         ""          FLOW  1.0      1.0      0.500000 
N0661            FLOW         ""          FLOW  1.0      1.0      0.500000 
N0662            FLOW         ""          FLOW  1.0      1.0      0.500000 
N0663            FLOW         ""          FLOW  1.0      1.0      0.500000 
N0664            FLOW         ""          FLOW  1.0      1.0      0.500000 
N0665            FLOW         ""          FLOW  1.0      1.0      0.500000 
N0666            FLOW         ""          FLOW  1.0      1.0      0.500000 
N0667            FLOW         ""          FLOW  1.0      1.0      0.500000 
N0668            FLOW         ""          FLOW  1.0      1.0      0.500000 
N0669            FLOW         ""          FLOW  1.0      1.0      0.500000 
N0670            FLOW         ""          FLOW  1.0      1.0      0.500000 
N0671            FLOW         ""          FLOW  1.0      1.0      0.500000 
N0672            FLOW         ""          FLOW  1.0      1.0      0.500000 
N0673            FLOW         ""          FLOW  1.0      1.0      0.500000 
N0674            FLOW         ""          FLOW  1.0      1.0      0.500000 
N0675            FLOW         ""          FLOW  1.0      1.0      0.500000 
N0676            FLOW         ""          FLOW  1.0      1.0      0.500000 
N0677            FLOW         ""          FLOW  1.0      1.0      0.500000 
N0678            FLOW         ""          FLOW  1.0      1.0      0.500000 
N0679            FLOW         ""          FLOW  1.0      1.0      0.500000 
N0680            FLOW         ""          FLOW  1.0      1.0      0.500000 
N0681            FLOW         ""          FLOW  1.0      1.0      0.500000 
N0682            FLOW         ""          FLOW  1.0      1.0      0.500000 
N0683            FLOW         ""          FLOW  1.0      1.0      0.500000 
N0684            FLOW         ""          FLOW  1.0      1.0      0.500000 
N0685            FLOW         ""          FLOW  1.0      1.0      0.500000 
N0686            FLOW         ""          FLOW  1.0      1.0      0.500000 
N0687            FLOW         ""          FLOW  1.0      1.0      0.500000 
N0688            FLOW         ""          FLOW  1.0      1.0      0.500000 
N0689            FLOW         ""          FLOW  1.0      1.0      0.500000 
N0690            FLOW         ""          FLOW  1.0      1.0      0.500000 
N0691            FLOW         ""          FLOW  1.0      1.0      0.500000 
N0692            FLOW         ""          FLOW  1.0      1.0      0.500000 
N0693            FLOW         ""          FLOW  1.0      1.0      0.500000 
N0694            FLOW         ""          FLOW  1.0      1.0      0.500000 
N0695            FLOW         ""          FLOW  1.0      1.0      0.500000 
N0696            FLOW         ""          FLOW  1.0      1.0      0.500000 
N0697            FLOW         ""          FLOW  1.0      1.0      0.500000 
N0698            FLOW         ""          FLOW  1.0      1.0      0.500000 
N0699            FLOW         ""          FLOW  1.0      1.0      0.500000 
N0700            FLOW         ""          FLOW  1.0      1.0      0.500000 
N0701            FLOW         ""          FLOW  1.0      1.0      0.500000 
N0702            FLOW         ""          FLOW  1.0      1.0      0.500000 
N0703            FLOW         ""          FLOW  1.0      1.0      0.500000 
N0704            FLOW         ""          FLOW  1.0      1.0      0.500000 
N0705            FLOW         ""          FLOW  1.0      1.0      0.500000 
N0706            FLOW         ""          FLOW  1.0      1.0      0.500000 
N0707            FLOW         ""          FLOW  1.0      1.0      0.500000 
N0708            FLOW         ""          FLOW  1.0      1.0      0.500000 
N0709            FLOW         ""          FLOW  1.0      1.0      0.500000 
N0710            FLOW         ""          FLOW  1.0      1.0      0.500000 
N0711            FLOW         ""          FLOW  1.0      1.0      0.500000 
N0712            FLOW         ""          FLOW  1.0      1.0      0.500000 
N0713            FLOW         ""          FLOW  1.0      1.0      0.500000 
N0714            FLOW         ""          FLOW  1.0      1.0      0.500000 
N0715            FLOW         ""          FLOW  1.0      1.0      0.500000 
N0716            FLOW         ""          FLOW  1.0      1.0      0.500000 
N0717            FLOW         ""          FLOW  1.0      1.0      0.500000 
N0718            FLOW         ""          FLOW  1.0      1.0      0.500000 
N0719            FLOW         ""          FLOW  1.0      1.0      0.500000 
N0720            FLOW         ""          FLOW  1.0      1.0      0.500000 
N0721            FLOW         ""          FLOW  1.0      1.0      0.500000 
N0722            FLOW         ""          FLOW  1.0      1.0      0.500000 
N0723            FLOW         ""          FLOW  1.0      1.0      0.500000 
N0724            FLOW         ""          FLOW  1.0      1.0      0.500000 
N0725            FLOW         ""          FLOW  1.0      1.0      0.500000 
N0726            FLOW         ""          FLOW  1.0      1.0      0.500000 
N0727            FLOW         ""          FLOW  1.0      1.0      0.500000 
N0728            FLOW         ""          FLOW  1.0      1.0      0.500000 
N0729            FLOW         ""          FLOW  1.0      1.0      0.500000 
N0730            FLOW         ""          FLOW  1.0      1.0      0.500000 
N0731            FLOW         ""          FLOW  1.0      1.0      0.500000 
N0732            FLOW         ""          FLOW  1.0      1.0      0.500000 
N0733            FLOW         ""          FLOW  1.0      1.0      0.500000 
N0734            FLOW         ""          FLOW  1.0      1.0      0.500000 
N0735            FLOW         ""          FLOW  1.0      1.0      0.500000 
N0736            FLOW         ""          FLOW  1.0      1.0      0.500000 
N0737            FLOW         ""          FLOW  1.0      1.0      0.500000 
N0738            FLOW         ""          FLOW  1.0      1.0      0.500000 
N0739            FLOW         ""          FLOW  1.0      1.0      0.500000 
N0740            FLOW         ""          FLOW  1.0      1.0      0.500000 
N0741            FLOW         ""          FLOW  1.0      1.0      0.500000 
N0742            FLOW         ""          FLOW  1.0      1.0      0.500000 
N0743            FLOW         ""          FLOW  1.0      1.0      0.500000 
N0744            FLOW         ""          FLOW  1.0      1.0      0.500000 
N0745            FLOW         ""          FLOW  1.0      1.0      0.500000 
N0746            FLOW         ""          FLOW  1.0      1.0      0.500000 
N0747            FLOW         ""          FLOW  1.0      1.0      0.500000 
N0748            FLOW         ""          FLOW  1.0      1.0      0.500000 
N0749            FLOW         ""          FLOW  1.0      1.0      0.500000 
N0750            FLOW         ""          FLOW  1.0      1.0      0.500000 
N0751            FLOW         ""          FLOW  1.0      1.0      0.500000 
N0752            FLOW         ""          FLOW  1.0      1.0      0.500000 
N0753            FLOW         ""          FLOW  1.0      1.0      0.500000 
N0754            FLOW         ""          FLOW  1.0      1.0      0.500000 
N0755            FLOW         ""          FLOW  1.0      1.0      0.500000 
N0756            FLOW         ""          FLOW  1.0      1.0      0.500000 
N0757            FLOW         ""          FLOW  1.0      1.0      0.500000 
N0758            FLOW         ""          FLOW  1.0      1.0      0.500000 
N0759            FLOW         ""          FLOW  1.0      1.0      0.500000 
N0760            FLOW         ""          FLOW  1.0      1.0      0.500000 
N0761            FLOW         ""          FLOW  1.0      1.0      0.500000 
N0762            FLOW         ""          FLOW  1.0      1.0      0.500000 
N0763            FLOW         ""          FLOW  1.0      1.0      0.500000 
N0764            FLOW         ""          FLOW  1.0      1.0      0.500000 
N0765            FLOW         ""          FLOW  1.0      1.0      0.500000 
N0766            FLOW         ""          FLOW  1.0      1.0      0.500000 
N0767            FLOW         ""          FLOW  1.0      1.0      0.500000 
N0768            FLOW         ""          FLOW  1.0      1.0      0.500000 
N0769            FLOW         ""          FLOW  1.0      1.0      0.500000 
N0770            FLOW         ""          FLOW  1.0      1.0      0.500000 
N0771            FLOW         ""          FLOW  1.0      1.0      0.500000 
N0772            FLOW         ""          FLOW  1.0      1.0      0.500000 
N0773            FLOW         ""          FLOW  1.0      1.0      0.500000 
N0774            FLOW         ""          FLOW  1.0      1.0      0.500000 
N0775            FLOW         ""          FLOW  1.0      1.0      0.500000 
N0776            FLOW         ""          FLOW  1.0      1.0      0.500000 
N0777            FLOW         ""          FLOW  1.0      1.0      0.500000 
N0778            FLOW         ""          FLOW  1.0      1.0      0.500000 
N0779            FLOW         ""          FLOW  1.0      1.0      0.500000 
N0780            FLOW         ""          FLOW  1.0      1.0      0.500000 
N0781            FLOW         ""          FLOW  1.0      1.0      0.500000 
N0782            FLOW         ""          FLOW  1.0      1.0      0.500000 
N0783            FLOW         ""          FLOW  1.0      1.0      0.500000 
N0784            FLOW         ""          FLOW  1.0      1.0      0.500000 
N0785            FLOW         ""          FLOW  1.0      1.0      0.500000 
N0786            FLOW         ""          FLOW  1.0      1.0      0.500000 
N0787            FLOW         ""          FLOW  1.0      1.0      0.500000 
N0788            FLOW         ""          FLOW  1.0      1.0      0.500000 
N0789            FLOW         ""          FLOW  1.0      1.0      0.500000 
N0790            FLOW         ""          FLOW  1.0      1.0      0.500000 
N0791            FLOW         ""          FLOW  1.0      1.0      0.500000 
N0792            FLOW         ""          FLOW  1.0      1.0      0.500000 
N0793            FLOW         ""          FLOW  1.0      1.0      0.500000 
N0794            FLOW         ""          FLOW  1.0      1.0      0.500000 
N0795            FLOW         ""          FLOW  1.0      1.0      0.500000 
N0796            FLOW         ""          FLOW  1.0      1.0      0.500000 
N0797            FLOW         ""          FLOW  1.0      1.0      0.500000 
N0798            FLOW         ""          FLOW  1.0      1.0      0.500000 
N0799            FLOW         ""          FLOW  1.0      1.0      0.500000 
N0800            FLOW         ""          FLOW  1.0      1.0      0.500000 
N0801            FLOW         ""          FLOW  1.0      1.0      0.500000 
N0802            FLOW         ""          FLOW  1.0      1.0      0.500000 
N0803            FLOW         ""          FLOW  1.0      1.0      0.500000 
N0804            FLOW         ""          FLOW  1.0      1.0      0.500000 
N0805            FLOW         ""          FLOW  1.0      1.0      0.500000 
N0806            FLOW         ""          FLOW  1.0      1.0      0.500000 
N0807            FLOW         ""          FLOW  1.0      1.0      0.500000 
N0808            FLOW         ""          FLOW  1.0      1.0      0.500000 
N0809            FLOW         ""          FLOW  1.0      1.0      0.500000 
N0810            FLOW         ""          FLOW  1.0      1.0      0.500000 
N0811            FLOW         ""          FLOW  1.0      1.0      0.500000 
N0812            FLOW         ""          FLOW  1.0      1.0      0.500000 
N0813            FLOW         ""          FLOW  1.0      1.0      0.500000 
N0814            FLOW         ""          FLOW  1.0      1.0      0.500000 
N0815            FLOW         ""          FLOW  1.0      1.0      0.500000 
N0816            FLOW         ""          FLOW  1.0      1.0      0.500000 
N0817            FLOW         ""          FLOW  1.0      1.0      0.500000 
N0818            FLOW         ""          FLOW  1.0      1.0      0.500000 
N0819            FLOW         ""          FLOW  1.0      1.0      0.500000 
N0820            FLOW         ""          FLOW  1.0      1.0      0.500000 
N0821            FLOW         ""          FLOW  1.0      1.0      0.500000 
N0822            FLOW         ""          FLOW  1.0      1.0      0.500000 
N0823            FLOW         ""          FLOW  1.0      1.0      0.500000 
N0824            FLOW         ""          FLOW  1.0      1.0      0.500000 
N0825            FLOW         ""          FLOW  1.0      1.0      0.500000 
N0826            FLOW         ""          FLOW  1.0      1.0      0.500000 
N0827            FLOW         ""          FLOW  1.0      1.0      0.500000 
N0828            FLOW         ""          FLOW  1.0      1.0      0.500000 
N0829            FLOW         ""          FLOW  1.0      1.0      0.500000 
N0830            FLOW         ""          FLOW  1.0      1.0      0.500000 
N0831            FLOW         ""          FLOW  1.0      1.0      0.500000 
N0832            FLOW         ""          FLOW  1.0      1.0      0.500000 
N0833            FLOW         ""          FLOW  1.0      1.0      0.500000 
N0834            FLOW         ""          FLOW  1.0      1.0      0.500000 
N0835            FLOW         ""          FLOW  1.0      1.0      0.500000 
N0836            FLOW         ""          FLOW  1.0      1.0      0.500000 
N0837            FLOW         ""          FLOW  1.0      1.0      0.500000 
N0838            FLOW         ""          FLOW  1.0      1.0      0.500000 
N0839            FLOW         ""          FLOW  1.0      1.0      0.500000 
N0840            FLOW         ""          FLOW  1.0      1.0      0.500000 
N0841            FLOW         ""          FLOW  1.0      1.0      0.500000 
N0842            FLOW         ""          FLOW  1.0      1.0      0.500000 
N0843            FLOW         ""          FLOW  1.0      1.0      0.500000 
N0844            FLOW         ""          FLOW  1.0      1.0      0.500000 
N0845            FLOW         ""          FLOW  1.0      1.0      0.500000 
N0846            FLOW         ""          FLOW  1.0      1.0      0.500000 
N0847            FLOW         ""          FLOW  1.0      1.0      0.500000 
N0848            FLOW         ""          FLOW  1.0      1.0      0.500000 
N0849            FLOW         ""          FLOW  1.0      1.0      0.500000 
N0850            FLOW         ""          FLOW  1.0      1.0      0.500000 
N0851            FLOW         ""          FLOW  1.0      1.0      0.500000 
N0852            FLOW         ""          FLOW  1.0      1.0      0.500000 
N0853            FLOW         ""          FLOW  1.0      1.0      0.500000 
N0854            FLOW         ""          FLOW  1.0      1.0      0.500000 
N0855            FLOW         ""          FLOW  1.0      1.0      0.500000 
N0856            FLOW         ""          FLOW  1.0      1.0      0.500000 
N0857            FLOW         ""          FLOW  1.0      1.0      0.500000 
N0858            FLOW         ""          FLOW  1.0      1.0      0.500000 
N0859            FLOW         ""          FLOW  1.0      1.0      0.500000 
N0860            FLOW         ""          FLOW  1.0      1.0      0.500000 
N0861            FLOW         ""          FLOW  1.0      1.0      0.500000 
N0862            FLOW         ""          FLOW  1.0      1.0      0.500000 
N0863            FLOW         ""          FLOW  1.0      1.0      0.500000 
N0864            FLOW         ""          FLOW  1.0      1.0      0.500000 
N0865            FLOW         ""          FLOW  1.0      1.0      0.500000 
N0866            FLOW         ""          FLOW  1.0      1.0      0.500000 
N0867            FLOW         ""          FLOW  1.0      1.0      0.500000 
N0868            FLOW         ""          FLOW  1.0      1.0      0.500000 
N0869            FLOW         ""          FLOW  1.0      1.0      0.500000 
N0870            FLOW         ""          FLOW  1.0      1.0      0.500000 
N0871            FLOW         ""          FLOW  1.0      1.0      0.500000 
N0872            FLOW         ""          FLOW  1.0      1.0      0.500000 
N0873            FLOW         ""          FLOW  1.0      1.0      0.500000 
N0874            FLOW         ""          FLOW  1.0      1.0      0.500000 
N0875            FLOW         ""          FLOW  1.0      1.0      0.500000 
N0876            FLOW         ""          FLOW  1.0      1.0      0.500000 
N0877            FLOW         ""          FLOW  1.0      1.0      0.500000 
N0878            FLOW         ""          FLOW  1.0      1.0      0.500000 
N0879            FLOW         ""          FLOW  1.0      1.0      0.500000 
N0880            FLOW         ""          FLOW  1.0      1.0      0.500000 
N0881            FLOW         ""          FLOW  1.0      1.0      0.500000 
N0882            FLOW         ""          FLOW  1.0      1.0      0.500000 
N0883            FLOW         ""          FLOW  1.0      1.0      0.500000 
N0884            FLOW         ""          FLOW  1.0      1.0      0.500000 
N0885            FLOW         ""          FLOW  1.0      1.0      0.500000 
N0886            FLOW         ""          FLOW  1.0      1.0      0.500000 
N0887            FLOW         ""          FLOW  1.0      1.0      0.500000 
N0888            FLOW         ""          FLOW  1.0      1.0      0.500000 
N0889            FLOW         ""          FLOW  1.0      1.0      0.500000 
N0890            FLOW         ""          FLOW  1.0      1.0      0.500000 
N0891            FLOW         ""          FLOW  1.0      1.0      0.500000 
N0892            FLOW         ""          FLOW  1.0      1.0      0.500000 
N0893            FLOW         ""          FLOW  1.0      1.0      0.500000 
N0894            FLOW         ""          FLOW  1.0      1.0      0.500000 
N0895            FLOW         ""          FLOW  1.0      1.0      0.500000 
N0896            FLOW         ""          FLOW  1.0      1.0      0.500000 
N0897            FLOW         ""          FLOW  1.0      1.0      0.500000 
N0898            FLOW         ""          FLOW  1.0      1.0      0.500000 
N0899            FLOW         ""          FLOW  1.0      1.0      0.500000 
N0900            FLOW         ""          FLOW  1.0      1.0      0.500000 
N0901            FLOW         ""          FLOW  1.0      1.0      0.500000 
N0902            FLOW         ""          FLOW  1.0      1.0      0.500000 
N0903            FLOW         ""          FLOW  1.0      1.0      0.500000 
N0904            FLOW         ""          FLOW  1.0      1.0      0.500000 
N0905            FLOW         ""          FLOW  1.0      1.0      0.500000 
N0906            FLOW         ""          FLOW  1.0      1.0      0.500000 
N0907            FLOW         ""          FLOW  1.0      1.0      0.500000 
N0908            FLOW         ""          FLOW  1.0      1.0      0.500000 
N0909            FLOW         ""          FLOW  1.0      1.0      0.500000 
N0910            FLOW         ""          FLOW  1.0      1.0      0.500000 
N0911            FLOW         ""          FLOW  1.0      1.0      0.500000 
N0912            FLOW         ""          FLOW  1.0      1.0      0.500000 
N0913            FLOW         ""          FLOW  1.0      1.0      0.500000 
N0914            FLOW         ""          FLOW  1.0      1.0      0.500000 
N0915            FLOW         ""          FLOW  1.0      1.0      0.500000 
N0916            FLOW         ""          FLOW  1.0      1.0      0.500000 
N0917            FLOW         ""          FLOW  1.0      1.0      0.500000 
N0918            FLOW         ""          FLOW  1.0      1.0      0.500000 
N0919            FLOW         ""          FLOW  1.0      1.0      0.500000 
N0920            FLOW         ""          FLOW  1.0      1.0      0.500000 
N0921            FLOW         ""          FLOW  1.0      1.0      0.500000 
N0922            FLOW         ""          FLOW  1.0      1.0      0.500000 
N0923            FLOW         ""          FLOW  1.0      1.0      0.500000 
N0924            FLOW         ""          FLOW  1.0      1.0      0.500000 
N0925            FLOW         ""          FLOW  1.0      1.0      0.500000 
N0926            FLOW         ""          FLOW  1.0      1.0      0.500000 
N0927            FLOW         ""          FLOW  1.0      1.0      0.500000 
N0928            FLOW         ""          FLOW  1.0      1.0      0.500000 
N0929            FLOW         ""          FLOW  1.0      1.0      0.500000 
N0930            FLOW         ""          FLOW  1.0      1.0      0.500000 
N0931            FLOW         ""          FLOW  1.0      1.0      0.500000 
N0932            FLOW         ""          FLOW  1.0      1.0      0.500000 
N0933            FLOW         ""          FLOW  1.0      1.0      0.500000 
N0934            FLOW         ""          FLOW  1.0      1.0      0.500000 
N0935            FLOW         ""          FLOW  1.0      1.0      0.500000 
N0936            FLOW         ""          FLOW  1.0      1.0      0.500000 
N0937            FLOW         ""          FLOW  1.0      1.0      0.500000 
N0938            FLOW         ""          FLOW  1.0      1.0      0.500000 
N0939            FLOW         ""          FLOW  1.0      1.0      0.500000 
N0940            FLOW         ""          FLOW  1.0      1.0      0.500000 
N0941            FLOW         ""          FLOW  1.0      1.0      0.500000 
N0942            FLOW         ""          FLOW  1.0      1.0      0.500000 
N0943            FLOW         ""          FLOW  1.0      1.0      0.500000 
N0944            FLOW         ""          FLOW  1.0      1.0      0.500000 
N0945            FLOW         ""          FLOW  1.0      1.0      0.500000 
N0946            FLOW         ""          FLOW  1.0      1.0      0.500000 
N0947            FLOW         ""          FLOW  1.0      1.0      0.500000 
N0948            FLOW         ""          FLOW  1.0      1.0      0.500000 
N0949            FLOW         ""          FLOW  1.0      1.0      0.500000 
N0950            FLOW         ""          FLOW  1.0      1.0      0.500000 
N0951            FLOW         ""          FLOW  1.0      1.0      0.500000 
N0952            FLOW         ""          FLOW  1.0      1.0      0.500000 
N0953            FLOW         ""          FLOW  1.0      1.0      0.500000 
N0954            FLOW         ""          FLOW  1.0      1.0      0.500000 
N0955            FLOW         ""          FLOW  1.0      1.0      0.500000 
N0956            FLOW         ""          FLOW  1.0      1.0      0.500000 
N0957            FLOW         ""          FLOW  1.0      1.0      0.500000 
N0958            FLOW         ""          FLOW  1.0      1.0      0.500000 
N0959            FLOW         ""          FLOW  1.0      1.0      0.500000 
N0960            FLOW         ""          FLOW  1.0      1.0      0.500000 
N0961            FLOW         ""          FLOW  1.0      1.0      0.500000 
N0962            FLOW         ""          FLOW  1.0      1.0      0.500000 
N0963            FLOW         ""          FLOW  1.0      1.0      0.500000 
N0964            FLOW         ""          FLOW  1.0      1.0      0.500000 
N0965            FLOW         ""          FLOW  1.0      1.0      0.500000 
N0966            FLOW         ""          FLOW  1.0      1.0      0.500000 
N0967            FLOW         ""          FLOW  1.0      1.0      0.500000 
N0968            FLOW         ""          FLOW  1.0      1.0      0.500000 
N0969            FLOW         ""          FLOW  1.0      1.0      0.500000 
N0970            FLOW         ""          FLOW  1.0      1.0      0.500000 
N0971            FLOW         ""          FLOW  1.0      1.0      0.500000 
N0972            FLOW         ""          FLOW  1.0      1.0      0.500000 
N0973            FLOW         ""          FLOW  1.0      1.0      0.500000 
N0974            FLOW         ""          FLOW  1.0      1.0      0.500000 
N0975            FLOW         ""          FLOW  1.0      1.0      0.500000 
N0976            FLOW         ""          FLOW  1.0      1.0      0.500000 
N0977            FLOW         ""          FLOW  1.0      1.0      0.500000 
N0978            FLOW         ""          FLOW  1.0      1.0      0.500000 
N0979            FLOW         ""          FLOW  1.0      1.0      0.500000 
N0980            FLOW         ""          FLOW  1.0      1.0      0.500000 
N0981            FLOW         ""          FLOW  1.0      1.0      0.500000 
N0982            FLOW         ""          FLOW  1.0      1.0      0.500000 
N0983            FLOW         ""          FLOW  1.0      1.0      0.500000 
N0984            FLOW         ""          FLOW  1.0      1.0      0.500000 
N0985            FLOW         ""          FLOW  1.0      1.0      0.500000 
N0986            FLOW         ""          FLOW  1.0      1.0      0.500000 
N0987            FLOW         ""          FLOW  1.0      1.0      0.500000 
N0988            FLOW         ""          FLOW  1.0      1.0      0.500000 
N0989            FLOW         ""          FLOW  1.0      1.0      0.500000 
N0990            FLOW         ""          FLOW  1.0      1.0      0.500000 
N0991            FLOW         ""          FLOW  1.0      1.0      0.500000 
N0992            FLOW         ""          FLOW  1.0      1.0      0.500000 
N0993            FLOW         ""          FLOW  1.0      1.0      0.500000 
N0994            FLOW         ""          FLOW  1.0      1.0      0.500000 
N0995            FLOW         ""          FLOW  1.0      1.0      0.500000 
N0996            FLOW         ""          FLOW  1.0      1.0      0.500000 
N0997            FLOW         ""          FLOW  1.0      1.0      0.500000 
N0998            FLOW         ""          FLOW  1.0      1.0      0.500000 
N0999            FLOW         ""          FLOW  1.0      1.0      0.500000 
N1000            FLOW         ""          FLOW  1.0      1.0      0.250000 

[REPORT]
INPUT      NO
CONTINUITY YES
FLOWSTATS  YES
NODES ALL
LINKS ALL

