[TITLE]
;; SWASHES macdonald-short-sub2sup — MacDonald 100 m channel, transonic at x = 50 m (SWASHES 3.2.2 (sub-to-supercritical)) — 2D strip 200x10 (edge ~0.5 m) for solver 2d-explicit

[OPTIONS]
FLOW_UNITS           CMS
INFILTRATION         HORTON
FLOW_ROUTING         DYNWAVE
LINK_OFFSETS         DEPTH
MIN_SLOPE            0
ALLOW_PONDING        NO
SKIP_STEADY_STATE    NO
THREADS              1
START_DATE           01/01/2026
START_TIME           00:00:00
REPORT_START_DATE    01/01/2026
REPORT_START_TIME    00:00:00
END_DATE             01/01/2026
END_TIME             0:30:00
REPORT_STEP          0:00:10
WET_STEP             0:00:10
DRY_STEP             0:00:10
ROUTING_STEP         1

[JUNCTIONS]
JD1     0     10        0          0         0

[OUTFALLS]
OD1     0     FREE          NO

[CONDUITS]
CD1     JD1   OD1  0.5    0.01   0   0   0

[XSECTIONS]
CD1     CIRCULAR  1.0    0      0      0      1

[COORDINATES]
JD1     100.5000   0.0000
OD1     101.0000   0.0000

[2D_OPTIONS]
INTEGRATOR             EXPLICIT
CFL_NUMBER             0.5
REPORT_2D              NO
OUTPUT_FILE            surface.h5
MAX_TIMESTEP           1.0
RAINFALL_MODE          NONE
FROUDE_MAX             3

[2D_VERTICES]
;; UNITS: SI (m)
;;X  Y  Z
0 -2.5 1.172713
0.5 -2.5 1.1722432
1 -2.5 1.1717305
1.5 -2.5 1.1711747
2 -2.5 1.1705757
2.5 -2.5 1.169933
3 -2.5 1.1692465
3.5 -2.5 1.1685161
4 -2.5 1.1677413
4.5 -2.5 1.1669221
5 -2.5 1.1660582
5.5 -2.5 1.1651493
6 -2.5 1.1641952
6.5 -2.5 1.1631956
7 -2.5 1.1621504
7.5 -2.5 1.1610593
8 -2.5 1.1599221
8.5 -2.5 1.1587384
9 -2.5 1.1575082
9.5 -2.5 1.1562311
10 -2.5 1.1549069
10.5 -2.5 1.1535354
11 -2.5 1.1521163
11.5 -2.5 1.1506494
12 -2.5 1.1491345
12.5 -2.5 1.1475713
13 -2.5 1.1459595
13.5 -2.5 1.144299
14 -2.5 1.1425895
14.5 -2.5 1.1408307
15 -2.5 1.1390225
15.5 -2.5 1.1371645
16 -2.5 1.1352566
16.5 -2.5 1.1332984
17 -2.5 1.1312899
17.5 -2.5 1.1292306
18 -2.5 1.1271205
18.5 -2.5 1.1249592
19 -2.5 1.1227465
19.5 -2.5 1.1204822
20 -2.5 1.118166
20.5 -2.5 1.1157978
21 -2.5 1.1133772
21.5 -2.5 1.1109041
22 -2.5 1.1083781
22.5 -2.5 1.1057992
23 -2.5 1.1031669
23.5 -2.5 1.1004812
24 -2.5 1.0977418
24.5 -2.5 1.0949485
25 -2.5 1.0921009
25.5 -2.5 1.089199
26 -2.5 1.0862425
26.5 -2.5 1.0832311
27 -2.5 1.0801646
27.5 -2.5 1.0770429
28 -2.5 1.0738657
28.5 -2.5 1.0706327
29 -2.5 1.0673438
29.5 -2.5 1.0639988
30 -2.5 1.0605974
30.5 -2.5 1.0571394
31 -2.5 1.0536247
31.5 -2.5 1.050053
32 -2.5 1.046424
32.5 -2.5 1.0427377
33 -2.5 1.0389938
33.5 -2.5 1.0351922
34 -2.5 1.0313325
34.5 -2.5 1.0274147
35 -2.5 1.0234385
35.5 -2.5 1.0194038
36 -2.5 1.0153103
36.5 -2.5 1.0111579
37 -2.5 1.0069465
37.5 -2.5 1.0026757
38 -2.5 0.99834555
38.5 -2.5 0.99395576
39 -2.5 0.9895062
39.5 -2.5 0.98499671
40 -2.5 0.98042712
40.5 -2.5 0.97579727
41 -2.5 0.97110702
41.5 -2.5 0.96635622
42 -2.5 0.96154473
42.5 -2.5 0.95667239
43 -2.5 0.95173908
43.5 -2.5 0.94674467
44 -2.5 0.94168902
44.5 -2.5 0.93657201
45 -2.5 0.93139351
45.5 -2.5 0.92615343
46 -2.5 0.92085163
46.5 -2.5 0.91548802
47 -2.5 0.9100625
47.5 -2.5 0.90457497
48 -2.5 0.89902533
48.5 -2.5 0.8934135
49 -2.5 0.88773939
49.5 -2.5 0.88200294
50 -2.5 0.87620406
50.5 -2.5 0.8703427
51 -2.5 0.86441879
51.5 -2.5 0.85843228
52 -2.5 0.85238311
52.5 -2.5 0.84627125
53 -2.5 0.84009665
53.5 -2.5 0.83385929
54 -2.5 0.82755914
54.5 -2.5 0.82119617
55 -2.5 0.81477038
55.5 -2.5 0.80828176
56 -2.5 0.80173031
56.5 -2.5 0.79511603
57 -2.5 0.78843894
57.5 -2.5 0.78169905
58 -2.5 0.7748964
58.5 -2.5 0.76803101
59 -2.5 0.76110293
59.5 -2.5 0.75411219
60 -2.5 0.74705887
60.5 -2.5 0.73994301
61 -2.5 0.73276469
61.5 -2.5 0.72552398
62 -2.5 0.71822097
62.5 -2.5 0.71085574
63 -2.5 0.70342841
63.5 -2.5 0.69593907
64 -2.5 0.68838783
64.5 -2.5 0.68077483
65 -2.5 0.67310019
65.5 -2.5 0.66536405
66 -2.5 0.65756655
66.5 -2.5 0.64970786
67 -2.5 0.64178814
67.5 -2.5 0.63380755
68 -2.5 0.62576627
68.5 -2.5 0.61766451
69 -2.5 0.60950245
69.5 -2.5 0.60128029
70 -2.5 0.59299826
70.5 -2.5 0.58465658
71 -2.5 0.57625547
71.5 -2.5 0.56779518
72 -2.5 0.55927596
72.5 -2.5 0.55069807
73 -2.5 0.54206177
73.5 -2.5 0.53336734
74 -2.5 0.52461507
74.5 -2.5 0.51580525
75 -2.5 0.50693819
75.5 -2.5 0.49801419
76 -2.5 0.48903358
76.5 -2.5 0.4799967
77 -2.5 0.47090388
77.5 -2.5 0.46175547
78 -2.5 0.45255183
78.5 -2.5 0.44329333
79 -2.5 0.43398034
79.5 -2.5 0.42461326
80 -2.5 0.41519249
80.5 -2.5 0.40571841
81 -2.5 0.39619146
81.5 -2.5 0.38661205
82 -2.5 0.37698063
82.5 -2.5 0.36729762
83 -2.5 0.35756349
83.5 -2.5 0.34777869
84 -2.5 0.33794369
84.5 -2.5 0.32805899
85 -2.5 0.31812505
85.5 -2.5 0.30814238
86 -2.5 0.2981115
86.5 -2.5 0.28803291
87 -2.5 0.27790713
87.5 -2.5 0.26773471
88 -2.5 0.25751619
88.5 -2.5 0.24725211
89 -2.5 0.23694304
89.5 -2.5 0.22658955
90 -2.5 0.21619221
90.5 -2.5 0.20575161
91 -2.5 0.19526835
91.5 -2.5 0.18474302
92 -2.5 0.17417624
92.5 -2.5 0.16356864
93 -2.5 0.15292083
93.5 -2.5 0.14223345
94 -2.5 0.13150715
94.5 -2.5 0.12074257
95 -2.5 0.10994038
95.5 -2.5 0.099101247
96 -2.5 0.088225838
96.5 -2.5 0.077314838
97 -2.5 0.066368935
97.5 -2.5 0.055388825
98 -2.5 0.04437521
98.5 -2.5 0.033328801
99 -2.5 0.022250313
99.5 -2.5 0.01114047
100 -2.5 0
0 -2 1.172713
0.5 -2 1.1722432
1 -2 1.1717305
1.5 -2 1.1711747
2 -2 1.1705757
2.5 -2 1.169933
3 -2 1.1692465
3.5 -2 1.1685161
4 -2 1.1677413
4.5 -2 1.1669221
5 -2 1.1660582
5.5 -2 1.1651493
6 -2 1.1641952
6.5 -2 1.1631956
7 -2 1.1621504
7.5 -2 1.1610593
8 -2 1.1599221
8.5 -2 1.1587384
9 -2 1.1575082
9.5 -2 1.1562311
10 -2 1.1549069
10.5 -2 1.1535354
11 -2 1.1521163
11.5 -2 1.1506494
12 -2 1.1491345
12.5 -2 1.1475713
13 -2 1.1459595
13.5 -2 1.144299
14 -2 1.1425895
14.5 -2 1.1408307
15 -2 1.1390225
15.5 -2 1.1371645
16 -2 1.1352566
16.5 -2 1.1332984
17 -2 1.1312899
17.5 -2 1.1292306
18 -2 1.1271205
18.5 -2 1.1249592
19 -2 1.1227465
19.5 -2 1.1204822
20 -2 1.118166
20.5 -2 1.1157978
21 -2 1.1133772
21.5 -2 1.1109041
22 -2 1.1083781
22.5 -2 1.1057992
23 -2 1.1031669
23.5 -2 1.1004812
24 -2 1.0977418
24.5 -2 1.0949485
25 -2 1.0921009
25.5 -2 1.089199
26 -2 1.0862425
26.5 -2 1.0832311
27 -2 1.0801646
27.5 -2 1.0770429
28 -2 1.0738657
28.5 -2 1.0706327
29 -2 1.0673438
29.5 -2 1.0639988
30 -2 1.0605974
30.5 -2 1.0571394
31 -2 1.0536247
31.5 -2 1.050053
32 -2 1.046424
32.5 -2 1.0427377
33 -2 1.0389938
33.5 -2 1.0351922
34 -2 1.0313325
34.5 -2 1.0274147
35 -2 1.0234385
35.5 -2 1.0194038
36 -2 1.0153103
36.5 -2 1.0111579
37 -2 1.0069465
37.5 -2 1.0026757
38 -2 0.99834555
38.5 -2 0.99395576
39 -2 0.9895062
39.5 -2 0.98499671
40 -2 0.98042712
40.5 -2 0.97579727
41 -2 0.97110702
41.5 -2 0.96635622
42 -2 0.96154473
42.5 -2 0.95667239
43 -2 0.95173908
43.5 -2 0.94674467
44 -2 0.94168902
44.5 -2 0.93657201
45 -2 0.93139351
45.5 -2 0.92615343
46 -2 0.92085163
46.5 -2 0.91548802
47 -2 0.9100625
47.5 -2 0.90457497
48 -2 0.89902533
48.5 -2 0.8934135
49 -2 0.88773939
49.5 -2 0.88200294
50 -2 0.87620406
50.5 -2 0.8703427
51 -2 0.86441879
51.5 -2 0.85843228
52 -2 0.85238311
52.5 -2 0.84627125
53 -2 0.84009665
53.5 -2 0.83385929
54 -2 0.82755914
54.5 -2 0.82119617
55 -2 0.81477038
55.5 -2 0.80828176
56 -2 0.80173031
56.5 -2 0.79511603
57 -2 0.78843894
57.5 -2 0.78169905
58 -2 0.7748964
58.5 -2 0.76803101
59 -2 0.76110293
59.5 -2 0.75411219
60 -2 0.74705887
60.5 -2 0.73994301
61 -2 0.73276469
61.5 -2 0.72552398
62 -2 0.71822097
62.5 -2 0.71085574
63 -2 0.70342841
63.5 -2 0.69593907
64 -2 0.68838783
64.5 -2 0.68077483
65 -2 0.67310019
65.5 -2 0.66536405
66 -2 0.65756655
66.5 -2 0.64970786
67 -2 0.64178814
67.5 -2 0.63380755
68 -2 0.62576627
68.5 -2 0.61766451
69 -2 0.60950245
69.5 -2 0.60128029
70 -2 0.59299826
70.5 -2 0.58465658
71 -2 0.57625547
71.5 -2 0.56779518
72 -2 0.55927596
72.5 -2 0.55069807
73 -2 0.54206177
73.5 -2 0.53336734
74 -2 0.52461507
74.5 -2 0.51580525
75 -2 0.50693819
75.5 -2 0.49801419
76 -2 0.48903358
76.5 -2 0.4799967
77 -2 0.47090388
77.5 -2 0.46175547
78 -2 0.45255183
78.5 -2 0.44329333
79 -2 0.43398034
79.5 -2 0.42461326
80 -2 0.41519249
80.5 -2 0.40571841
81 -2 0.39619146
81.5 -2 0.38661205
82 -2 0.37698063
82.5 -2 0.36729762
83 -2 0.35756349
83.5 -2 0.34777869
84 -2 0.33794369
84.5 -2 0.32805899
85 -2 0.31812505
85.5 -2 0.30814238
86 -2 0.2981115
86.5 -2 0.28803291
87 -2 0.27790713
87.5 -2 0.26773471
88 -2 0.25751619
88.5 -2 0.24725211
89 -2 0.23694304
89.5 -2 0.22658955
90 -2 0.21619221
90.5 -2 0.20575161
91 -2 0.19526835
91.5 -2 0.18474302
92 -2 0.17417624
92.5 -2 0.16356864
93 -2 0.15292083
93.5 -2 0.14223345
94 -2 0.13150715
94.5 -2 0.12074257
95 -2 0.10994038
95.5 -2 0.099101247
96 -2 0.088225838
96.5 -2 0.077314838
97 -2 0.066368935
97.5 -2 0.055388825
98 -2 0.04437521
98.5 -2 0.033328801
99 -2 0.022250313
99.5 -2 0.01114047
100 -2 0
0 -1.5 1.172713
0.5 -1.5 1.1722432
1 -1.5 1.1717305
1.5 -1.5 1.1711747
2 -1.5 1.1705757
2.5 -1.5 1.169933
3 -1.5 1.1692465
3.5 -1.5 1.1685161
4 -1.5 1.1677413
4.5 -1.5 1.1669221
5 -1.5 1.1660582
5.5 -1.5 1.1651493
6 -1.5 1.1641952
6.5 -1.5 1.1631956
7 -1.5 1.1621504
7.5 -1.5 1.1610593
8 -1.5 1.1599221
8.5 -1.5 1.1587384
9 -1.5 1.1575082
9.5 -1.5 1.1562311
10 -1.5 1.1549069
10.5 -1.5 1.1535354
11 -1.5 1.1521163
11.5 -1.5 1.1506494
12 -1.5 1.1491345
12.5 -1.5 1.1475713
13 -1.5 1.1459595
13.5 -1.5 1.144299
14 -1.5 1.1425895
14.5 -1.5 1.1408307
15 -1.5 1.1390225
15.5 -1.5 1.1371645
16 -1.5 1.1352566
16.5 -1.5 1.1332984
17 -1.5 1.1312899
17.5 -1.5 1.1292306
18 -1.5 1.1271205
18.5 -1.5 1.1249592
19 -1.5 1.1227465
19.5 -1.5 1.1204822
20 -1.5 1.118166
20.5 -1.5 1.1157978
21 -1.5 1.1133772
21.5 -1.5 1.1109041
22 -1.5 1.1083781
22.5 -1.5 1.1057992
23 -1.5 1.1031669
23.5 -1.5 1.1004812
24 -1.5 1.0977418
24.5 -1.5 1.0949485
25 -1.5 1.0921009
25.5 -1.5 1.089199
26 -1.5 1.0862425
26.5 -1.5 1.0832311
27 -1.5 1.0801646
27.5 -1.5 1.0770429
28 -1.5 1.0738657
28.5 -1.5 1.0706327
29 -1.5 1.0673438
29.5 -1.5 1.0639988
30 -1.5 1.0605974
30.5 -1.5 1.0571394
31 -1.5 1.0536247
31.5 -1.5 1.050053
32 -1.5 1.046424
32.5 -1.5 1.0427377
33 -1.5 1.0389938
33.5 -1.5 1.0351922
34 -1.5 1.0313325
34.5 -1.5 1.0274147
35 -1.5 1.0234385
35.5 -1.5 1.0194038
36 -1.5 1.0153103
36.5 -1.5 1.0111579
37 -1.5 1.0069465
37.5 -1.5 1.0026757
38 -1.5 0.99834555
38.5 -1.5 0.99395576
39 -1.5 0.9895062
39.5 -1.5 0.98499671
40 -1.5 0.98042712
40.5 -1.5 0.97579727
41 -1.5 0.97110702
41.5 -1.5 0.96635622
42 -1.5 0.96154473
42.5 -1.5 0.95667239
43 -1.5 0.95173908
43.5 -1.5 0.94674467
44 -1.5 0.94168902
44.5 -1.5 0.93657201
45 -1.5 0.93139351
45.5 -1.5 0.92615343
46 -1.5 0.92085163
46.5 -1.5 0.91548802
47 -1.5 0.9100625
47.5 -1.5 0.90457497
48 -1.5 0.89902533
48.5 -1.5 0.8934135
49 -1.5 0.88773939
49.5 -1.5 0.88200294
50 -1.5 0.87620406
50.5 -1.5 0.8703427
51 -1.5 0.86441879
51.5 -1.5 0.85843228
52 -1.5 0.85238311
52.5 -1.5 0.84627125
53 -1.5 0.84009665
53.5 -1.5 0.83385929
54 -1.5 0.82755914
54.5 -1.5 0.82119617
55 -1.5 0.81477038
55.5 -1.5 0.80828176
56 -1.5 0.80173031
56.5 -1.5 0.79511603
57 -1.5 0.78843894
57.5 -1.5 0.78169905
58 -1.5 0.7748964
58.5 -1.5 0.76803101
59 -1.5 0.76110293
59.5 -1.5 0.75411219
60 -1.5 0.74705887
60.5 -1.5 0.73994301
61 -1.5 0.73276469
61.5 -1.5 0.72552398
62 -1.5 0.71822097
62.5 -1.5 0.71085574
63 -1.5 0.70342841
63.5 -1.5 0.69593907
64 -1.5 0.68838783
64.5 -1.5 0.68077483
65 -1.5 0.67310019
65.5 -1.5 0.66536405
66 -1.5 0.65756655
66.5 -1.5 0.64970786
67 -1.5 0.64178814
67.5 -1.5 0.63380755
68 -1.5 0.62576627
68.5 -1.5 0.61766451
69 -1.5 0.60950245
69.5 -1.5 0.60128029
70 -1.5 0.59299826
70.5 -1.5 0.58465658
71 -1.5 0.57625547
71.5 -1.5 0.56779518
72 -1.5 0.55927596
72.5 -1.5 0.55069807
73 -1.5 0.54206177
73.5 -1.5 0.53336734
74 -1.5 0.52461507
74.5 -1.5 0.51580525
75 -1.5 0.50693819
75.5 -1.5 0.49801419
76 -1.5 0.48903358
76.5 -1.5 0.4799967
77 -1.5 0.47090388
77.5 -1.5 0.46175547
78 -1.5 0.45255183
78.5 -1.5 0.44329333
79 -1.5 0.43398034
79.5 -1.5 0.42461326
80 -1.5 0.41519249
80.5 -1.5 0.40571841
81 -1.5 0.39619146
81.5 -1.5 0.38661205
82 -1.5 0.37698063
82.5 -1.5 0.36729762
83 -1.5 0.35756349
83.5 -1.5 0.34777869
84 -1.5 0.33794369
84.5 -1.5 0.32805899
85 -1.5 0.31812505
85.5 -1.5 0.30814238
86 -1.5 0.2981115
86.5 -1.5 0.28803291
87 -1.5 0.27790713
87.5 -1.5 0.26773471
88 -1.5 0.25751619
88.5 -1.5 0.24725211
89 -1.5 0.23694304
89.5 -1.5 0.22658955
90 -1.5 0.21619221
90.5 -1.5 0.20575161
91 -1.5 0.19526835
91.5 -1.5 0.18474302
92 -1.5 0.17417624
92.5 -1.5 0.16356864
93 -1.5 0.15292083
93.5 -1.5 0.14223345
94 -1.5 0.13150715
94.5 -1.5 0.12074257
95 -1.5 0.10994038
95.5 -1.5 0.099101247
96 -1.5 0.088225838
96.5 -1.5 0.077314838
97 -1.5 0.066368935
97.5 -1.5 0.055388825
98 -1.5 0.04437521
98.5 -1.5 0.033328801
99 -1.5 0.022250313
99.5 -1.5 0.01114047
100 -1.5 0
0 -1 1.172713
0.5 -1 1.1722432
1 -1 1.1717305
1.5 -1 1.1711747
2 -1 1.1705757
2.5 -1 1.169933
3 -1 1.1692465
3.5 -1 1.1685161
4 -1 1.1677413
4.5 -1 1.1669221
5 -1 1.1660582
5.5 -1 1.1651493
6 -1 1.1641952
6.5 -1 1.1631956
7 -1 1.1621504
7.5 -1 1.1610593
8 -1 1.1599221
8.5 -1 1.1587384
9 -1 1.1575082
9.5 -1 1.1562311
10 -1 1.1549069
10.5 -1 1.1535354
11 -1 1.1521163
11.5 -1 1.1506494
12 -1 1.1491345
12.5 -1 1.1475713
13 -1 1.1459595
13.5 -1 1.144299
14 -1 1.1425895
14.5 -1 1.1408307
15 -1 1.1390225
15.5 -1 1.1371645
16 -1 1.1352566
16.5 -1 1.1332984
17 -1 1.1312899
17.5 -1 1.1292306
18 -1 1.1271205
18.5 -1 1.1249592
19 -1 1.1227465
19.5 -1 1.1204822
20 -1 1.118166
20.5 -1 1.1157978
21 -1 1.1133772
21.5 -1 1.1109041
22 -1 1.1083781
22.5 -1 1.1057992
23 -1 1.1031669
23.5 -1 1.1004812
24 -1 1.0977418
24.5 -1 1.0949485
25 -1 1.0921009
25.5 -1 1.089199
26 -1 1.0862425
26.5 -1 1.0832311
27 -1 1.0801646
27.5 -1 1.0770429
28 -1 1.0738657
28.5 -1 1.0706327
29 -1 1.0673438
29.5 -1 1.0639988
30 -1 1.0605974
30.5 -1 1.0571394
31 -1 1.0536247
31.5 -1 1.050053
32 -1 1.046424
32.5 -1 1.0427377
33 -1 1.0389938
33.5 -1 1.0351922
34 -1 1.0313325
34.5 -1 1.0274147
35 -1 1.0234385
35.5 -1 1.0194038
36 -1 1.0153103
36.5 -1 1.0111579
37 -1 1.0069465
37.5 -1 1.0026757
38 -1 0.99834555
38.5 -1 0.99395576
39 -1 0.9895062
39.5 -1 0.98499671
40 -1 0.98042712
40.5 -1 0.97579727
41 -1 0.97110702
41.5 -1 0.96635622
42 -1 0.96154473
42.5 -1 0.95667239
43 -1 0.95173908
43.5 -1 0.94674467
44 -1 0.94168902
44.5 -1 0.93657201
45 -1 0.93139351
45.5 -1 0.92615343
46 -1 0.92085163
46.5 -1 0.91548802
47 -1 0.9100625
47.5 -1 0.90457497
48 -1 0.89902533
48.5 -1 0.8934135
49 -1 0.88773939
49.5 -1 0.88200294
50 -1 0.87620406
50.5 -1 0.8703427
51 -1 0.86441879
51.5 -1 0.85843228
52 -1 0.85238311
52.5 -1 0.84627125
53 -1 0.84009665
53.5 -1 0.83385929
54 -1 0.82755914
54.5 -1 0.82119617
55 -1 0.81477038
55.5 -1 0.80828176
56 -1 0.80173031
56.5 -1 0.79511603
57 -1 0.78843894
57.5 -1 0.78169905
58 -1 0.7748964
58.5 -1 0.76803101
59 -1 0.76110293
59.5 -1 0.75411219
60 -1 0.74705887
60.5 -1 0.73994301
61 -1 0.73276469
61.5 -1 0.72552398
62 -1 0.71822097
62.5 -1 0.71085574
63 -1 0.70342841
63.5 -1 0.69593907
64 -1 0.68838783
64.5 -1 0.68077483
65 -1 0.67310019
65.5 -1 0.66536405
66 -1 0.65756655
66.5 -1 0.64970786
67 -1 0.64178814
67.5 -1 0.63380755
68 -1 0.62576627
68.5 -1 0.61766451
69 -1 0.60950245
69.5 -1 0.60128029
70 -1 0.59299826
70.5 -1 0.58465658
71 -1 0.57625547
71.5 -1 0.56779518
72 -1 0.55927596
72.5 -1 0.55069807
73 -1 0.54206177
73.5 -1 0.53336734
74 -1 0.52461507
74.5 -1 0.51580525
75 -1 0.50693819
75.5 -1 0.49801419
76 -1 0.48903358
76.5 -1 0.4799967
77 -1 0.47090388
77.5 -1 0.46175547
78 -1 0.45255183
78.5 -1 0.44329333
79 -1 0.43398034
79.5 -1 0.42461326
80 -1 0.41519249
80.5 -1 0.40571841
81 -1 0.39619146
81.5 -1 0.38661205
82 -1 0.37698063
82.5 -1 0.36729762
83 -1 0.35756349
83.5 -1 0.34777869
84 -1 0.33794369
84.5 -1 0.32805899
85 -1 0.31812505
85.5 -1 0.30814238
86 -1 0.2981115
86.5 -1 0.28803291
87 -1 0.27790713
87.5 -1 0.26773471
88 -1 0.25751619
88.5 -1 0.24725211
89 -1 0.23694304
89.5 -1 0.22658955
90 -1 0.21619221
90.5 -1 0.20575161
91 -1 0.19526835
91.5 -1 0.18474302
92 -1 0.17417624
92.5 -1 0.16356864
93 -1 0.15292083
93.5 -1 0.14223345
94 -1 0.13150715
94.5 -1 0.12074257
95 -1 0.10994038
95.5 -1 0.099101247
96 -1 0.088225838
96.5 -1 0.077314838
97 -1 0.066368935
97.5 -1 0.055388825
98 -1 0.04437521
98.5 -1 0.033328801
99 -1 0.022250313
99.5 -1 0.01114047
100 -1 0
0 -0.5 1.172713
0.5 -0.5 1.1722432
1 -0.5 1.1717305
1.5 -0.5 1.1711747
2 -0.5 1.1705757
2.5 -0.5 1.169933
3 -0.5 1.1692465
3.5 -0.5 1.1685161
4 -0.5 1.1677413
4.5 -0.5 1.1669221
5 -0.5 1.1660582
5.5 -0.5 1.1651493
6 -0.5 1.1641952
6.5 -0.5 1.1631956
7 -0.5 1.1621504
7.5 -0.5 1.1610593
8 -0.5 1.1599221
8.5 -0.5 1.1587384
9 -0.5 1.1575082
9.5 -0.5 1.1562311
10 -0.5 1.1549069
10.5 -0.5 1.1535354
11 -0.5 1.1521163
11.5 -0.5 1.1506494
12 -0.5 1.1491345
12.5 -0.5 1.1475713
13 -0.5 1.1459595
13.5 -0.5 1.144299
14 -0.5 1.1425895
14.5 -0.5 1.1408307
15 -0.5 1.1390225
15.5 -0.5 1.1371645
16 -0.5 1.1352566
16.5 -0.5 1.1332984
17 -0.5 1.1312899
17.5 -0.5 1.1292306
18 -0.5 1.1271205
18.5 -0.5 1.1249592
19 -0.5 1.1227465
19.5 -0.5 1.1204822
20 -0.5 1.118166
20.5 -0.5 1.1157978
21 -0.5 1.1133772
21.5 -0.5 1.1109041
22 -0.5 1.1083781
22.5 -0.5 1.1057992
23 -0.5 1.1031669
23.5 -0.5 1.1004812
24 -0.5 1.0977418
24.5 -0.5 1.0949485
25 -0.5 1.0921009
25.5 -0.5 1.089199
26 -0.5 1.0862425
26.5 -0.5 1.0832311
27 -0.5 1.0801646
27.5 -0.5 1.0770429
28 -0.5 1.0738657
28.5 -0.5 1.0706327
29 -0.5 1.0673438
29.5 -0.5 1.0639988
30 -0.5 1.0605974
30.5 -0.5 1.0571394
31 -0.5 1.0536247
31.5 -0.5 1.050053
32 -0.5 1.046424
32.5 -0.5 1.0427377
33 -0.5 1.0389938
33.5 -0.5 1.0351922
34 -0.5 1.0313325
34.5 -0.5 1.0274147
35 -0.5 1.0234385
35.5 -0.5 1.0194038
36 -0.5 1.0153103
36.5 -0.5 1.0111579
37 -0.5 1.0069465
37.5 -0.5 1.0026757
38 -0.5 0.99834555
38.5 -0.5 0.99395576
39 -0.5 0.9895062
39.5 -0.5 0.98499671
40 -0.5 0.98042712
40.5 -0.5 0.97579727
41 -0.5 0.97110702
41.5 -0.5 0.96635622
42 -0.5 0.96154473
42.5 -0.5 0.95667239
43 -0.5 0.95173908
43.5 -0.5 0.94674467
44 -0.5 0.94168902
44.5 -0.5 0.93657201
45 -0.5 0.93139351
45.5 -0.5 0.92615343
46 -0.5 0.92085163
46.5 -0.5 0.91548802
47 -0.5 0.9100625
47.5 -0.5 0.90457497
48 -0.5 0.89902533
48.5 -0.5 0.8934135
49 -0.5 0.88773939
49.5 -0.5 0.88200294
50 -0.5 0.87620406
50.5 -0.5 0.8703427
51 -0.5 0.86441879
51.5 -0.5 0.85843228
52 -0.5 0.85238311
52.5 -0.5 0.84627125
53 -0.5 0.84009665
53.5 -0.5 0.83385929
54 -0.5 0.82755914
54.5 -0.5 0.82119617
55 -0.5 0.81477038
55.5 -0.5 0.80828176
56 -0.5 0.80173031
56.5 -0.5 0.79511603
57 -0.5 0.78843894
57.5 -0.5 0.78169905
58 -0.5 0.7748964
58.5 -0.5 0.76803101
59 -0.5 0.76110293
59.5 -0.5 0.75411219
60 -0.5 0.74705887
60.5 -0.5 0.73994301
61 -0.5 0.73276469
61.5 -0.5 0.72552398
62 -0.5 0.71822097
62.5 -0.5 0.71085574
63 -0.5 0.70342841
63.5 -0.5 0.69593907
64 -0.5 0.68838783
64.5 -0.5 0.68077483
65 -0.5 0.67310019
65.5 -0.5 0.66536405
66 -0.5 0.65756655
66.5 -0.5 0.64970786
67 -0.5 0.64178814
67.5 -0.5 0.63380755
68 -0.5 0.62576627
68.5 -0.5 0.61766451
69 -0.5 0.60950245
69.5 -0.5 0.60128029
70 -0.5 0.59299826
70.5 -0.5 0.58465658
71 -0.5 0.57625547
71.5 -0.5 0.56779518
72 -0.5 0.55927596
72.5 -0.5 0.55069807
73 -0.5 0.54206177
73.5 -0.5 0.53336734
74 -0.5 0.52461507
74.5 -0.5 0.51580525
75 -0.5 0.50693819
75.5 -0.5 0.49801419
76 -0.5 0.48903358
76.5 -0.5 0.4799967
77 -0.5 0.47090388
77.5 -0.5 0.46175547
78 -0.5 0.45255183
78.5 -0.5 0.44329333
79 -0.5 0.43398034
79.5 -0.5 0.42461326
80 -0.5 0.41519249
80.5 -0.5 0.40571841
81 -0.5 0.39619146
81.5 -0.5 0.38661205
82 -0.5 0.37698063
82.5 -0.5 0.36729762
83 -0.5 0.35756349
83.5 -0.5 0.34777869
84 -0.5 0.33794369
84.5 -0.5 0.32805899
85 -0.5 0.31812505
85.5 -0.5 0.30814238
86 -0.5 0.2981115
86.5 -0.5 0.28803291
87 -0.5 0.27790713
87.5 -0.5 0.26773471
88 -0.5 0.25751619
88.5 -0.5 0.24725211
89 -0.5 0.23694304
89.5 -0.5 0.22658955
90 -0.5 0.21619221
90.5 -0.5 0.20575161
91 -0.5 0.19526835
91.5 -0.5 0.18474302
92 -0.5 0.17417624
92.5 -0.5 0.16356864
93 -0.5 0.15292083
93.5 -0.5 0.14223345
94 -0.5 0.13150715
94.5 -0.5 0.12074257
95 -0.5 0.10994038
95.5 -0.5 0.099101247
96 -0.5 0.088225838
96.5 -0.5 0.077314838
97 -0.5 0.066368935
97.5 -0.5 0.055388825
98 -0.5 0.04437521
98.5 -0.5 0.033328801
99 -0.5 0.022250313
99.5 -0.5 0.01114047
100 -0.5 0
0 0 1.172713
0.5 0 1.1722432
1 0 1.1717305
1.5 0 1.1711747
2 0 1.1705757
2.5 0 1.169933
3 0 1.1692465
3.5 0 1.1685161
4 0 1.1677413
4.5 0 1.1669221
5 0 1.1660582
5.5 0 1.1651493
6 0 1.1641952
6.5 0 1.1631956
7 0 1.1621504
7.5 0 1.1610593
8 0 1.1599221
8.5 0 1.1587384
9 0 1.1575082
9.5 0 1.1562311
10 0 1.1549069
10.5 0 1.1535354
11 0 1.1521163
11.5 0 1.1506494
12 0 1.1491345
12.5 0 1.1475713
13 0 1.1459595
13.5 0 1.144299
14 0 1.1425895
14.5 0 1.1408307
15 0 1.1390225
15.5 0 1.1371645
16 0 1.1352566
16.5 0 1.1332984
17 0 1.1312899
17.5 0 1.1292306
18 0 1.1271205
18.5 0 1.1249592
19 0 1.1227465
19.5 0 1.1204822
20 0 1.118166
20.5 0 1.1157978
21 0 1.1133772
21.5 0 1.1109041
22 0 1.1083781
22.5 0 1.1057992
23 0 1.1031669
23.5 0 1.1004812
24 0 1.0977418
24.5 0 1.0949485
25 0 1.0921009
25.5 0 1.089199
26 0 1.0862425
26.5 0 1.0832311
27 0 1.0801646
27.5 0 1.0770429
28 0 1.0738657
28.5 0 1.0706327
29 0 1.0673438
29.5 0 1.0639988
30 0 1.0605974
30.5 0 1.0571394
31 0 1.0536247
31.5 0 1.050053
32 0 1.046424
32.5 0 1.0427377
33 0 1.0389938
33.5 0 1.0351922
34 0 1.0313325
34.5 0 1.0274147
35 0 1.0234385
35.5 0 1.0194038
36 0 1.0153103
36.5 0 1.0111579
37 0 1.0069465
37.5 0 1.0026757
38 0 0.99834555
38.5 0 0.99395576
39 0 0.9895062
39.5 0 0.98499671
40 0 0.98042712
40.5 0 0.97579727
41 0 0.97110702
41.5 0 0.96635622
42 0 0.96154473
42.5 0 0.95667239
43 0 0.95173908
43.5 0 0.94674467
44 0 0.94168902
44.5 0 0.93657201
45 0 0.93139351
45.5 0 0.92615343
46 0 0.92085163
46.5 0 0.91548802
47 0 0.9100625
47.5 0 0.90457497
48 0 0.89902533
48.5 0 0.8934135
49 0 0.88773939
49.5 0 0.88200294
50 0 0.87620406
50.5 0 0.8703427
51 0 0.86441879
51.5 0 0.85843228
52 0 0.85238311
52.5 0 0.84627125
53 0 0.84009665
53.5 0 0.83385929
54 0 0.82755914
54.5 0 0.82119617
55 0 0.81477038
55.5 0 0.80828176
56 0 0.80173031
56.5 0 0.79511603
57 0 0.78843894
57.5 0 0.78169905
58 0 0.7748964
58.5 0 0.76803101
59 0 0.76110293
59.5 0 0.75411219
60 0 0.74705887
60.5 0 0.73994301
61 0 0.73276469
61.5 0 0.72552398
62 0 0.71822097
62.5 0 0.71085574
63 0 0.70342841
63.5 0 0.69593907
64 0 0.68838783
64.5 0 0.68077483
65 0 0.67310019
65.5 0 0.66536405
66 0 0.65756655
66.5 0 0.64970786
67 0 0.64178814
67.5 0 0.63380755
68 0 0.62576627
68.5 0 0.61766451
69 0 0.60950245
69.5 0 0.60128029
70 0 0.59299826
70.5 0 0.58465658
71 0 0.57625547
71.5 0 0.56779518
72 0 0.55927596
72.5 0 0.55069807
73 0 0.54206177
73.5 0 0.53336734
74 0 0.52461507
74.5 0 0.51580525
75 0 0.50693819
75.5 0 0.49801419
76 0 0.48903358
76.5 0 0.4799967
77 0 0.47090388
77.5 0 0.46175547
78 0 0.45255183
78.5 0 0.44329333
79 0 0.43398034
79.5 0 0.42461326
80 0 0.41519249
80.5 0 0.40571841
81 0 0.39619146
81.5 0 0.38661205
82 0 0.37698063
82.5 0 0.36729762
83 0 0.35756349
83.5 0 0.34777869
84 0 0.33794369
84.5 0 0.32805899
85 0 0.31812505
85.5 0 0.30814238
86 0 0.2981115
86.5 0 0.28803291
87 0 0.27790713
87.5 0 0.26773471
88 0 0.25751619
88.5 0 0.24725211
89 0 0.23694304
89.5 0 0.22658955
90 0 0.21619221
90.5 0 0.20575161
91 0 0.19526835
91.5 0 0.18474302
92 0 0.17417624
92.5 0 0.16356864
93 0 0.15292083
93.5 0 0.14223345
94 0 0.13150715
94.5 0 0.12074257
95 0 0.10994038
95.5 0 0.099101247
96 0 0.088225838
96.5 0 0.077314838
97 0 0.066368935
97.5 0 0.055388825
98 0 0.04437521
98.5 0 0.033328801
99 0 0.022250313
99.5 0 0.01114047
100 0 0
0 0.5 1.172713
0.5 0.5 1.1722432
1 0.5 1.1717305
1.5 0.5 1.1711747
2 0.5 1.1705757
2.5 0.5 1.169933
3 0.5 1.1692465
3.5 0.5 1.1685161
4 0.5 1.1677413
4.5 0.5 1.1669221
5 0.5 1.1660582
5.5 0.5 1.1651493
6 0.5 1.1641952
6.5 0.5 1.1631956
7 0.5 1.1621504
7.5 0.5 1.1610593
8 0.5 1.1599221
8.5 0.5 1.1587384
9 0.5 1.1575082
9.5 0.5 1.1562311
10 0.5 1.1549069
10.5 0.5 1.1535354
11 0.5 1.1521163
11.5 0.5 1.1506494
12 0.5 1.1491345
12.5 0.5 1.1475713
13 0.5 1.1459595
13.5 0.5 1.144299
14 0.5 1.1425895
14.5 0.5 1.1408307
15 0.5 1.1390225
15.5 0.5 1.1371645
16 0.5 1.1352566
16.5 0.5 1.1332984
17 0.5 1.1312899
17.5 0.5 1.1292306
18 0.5 1.1271205
18.5 0.5 1.1249592
19 0.5 1.1227465
19.5 0.5 1.1204822
20 0.5 1.118166
20.5 0.5 1.1157978
21 0.5 1.1133772
21.5 0.5 1.1109041
22 0.5 1.1083781
22.5 0.5 1.1057992
23 0.5 1.1031669
23.5 0.5 1.1004812
24 0.5 1.0977418
24.5 0.5 1.0949485
25 0.5 1.0921009
25.5 0.5 1.089199
26 0.5 1.0862425
26.5 0.5 1.0832311
27 0.5 1.0801646
27.5 0.5 1.0770429
28 0.5 1.0738657
28.5 0.5 1.0706327
29 0.5 1.0673438
29.5 0.5 1.0639988
30 0.5 1.0605974
30.5 0.5 1.0571394
31 0.5 1.0536247
31.5 0.5 1.050053
32 0.5 1.046424
32.5 0.5 1.0427377
33 0.5 1.0389938
33.5 0.5 1.0351922
34 0.5 1.0313325
34.5 0.5 1.0274147
35 0.5 1.0234385
35.5 0.5 1.0194038
36 0.5 1.0153103
36.5 0.5 1.0111579
37 0.5 1.0069465
37.5 0.5 1.0026757
38 0.5 0.99834555
38.5 0.5 0.99395576
39 0.5 0.9895062
39.5 0.5 0.98499671
40 0.5 0.98042712
40.5 0.5 0.97579727
41 0.5 0.97110702
41.5 0.5 0.96635622
42 0.5 0.96154473
42.5 0.5 0.95667239
43 0.5 0.95173908
43.5 0.5 0.94674467
44 0.5 0.94168902
44.5 0.5 0.93657201
45 0.5 0.93139351
45.5 0.5 0.92615343
46 0.5 0.92085163
46.5 0.5 0.91548802
47 0.5 0.9100625
47.5 0.5 0.90457497
48 0.5 0.89902533
48.5 0.5 0.8934135
49 0.5 0.88773939
49.5 0.5 0.88200294
50 0.5 0.87620406
50.5 0.5 0.8703427
51 0.5 0.86441879
51.5 0.5 0.85843228
52 0.5 0.85238311
52.5 0.5 0.84627125
53 0.5 0.84009665
53.5 0.5 0.83385929
54 0.5 0.82755914
54.5 0.5 0.82119617
55 0.5 0.81477038
55.5 0.5 0.80828176
56 0.5 0.80173031
56.5 0.5 0.79511603
57 0.5 0.78843894
57.5 0.5 0.78169905
58 0.5 0.7748964
58.5 0.5 0.76803101
59 0.5 0.76110293
59.5 0.5 0.75411219
60 0.5 0.74705887
60.5 0.5 0.73994301
61 0.5 0.73276469
61.5 0.5 0.72552398
62 0.5 0.71822097
62.5 0.5 0.71085574
63 0.5 0.70342841
63.5 0.5 0.69593907
64 0.5 0.68838783
64.5 0.5 0.68077483
65 0.5 0.67310019
65.5 0.5 0.66536405
66 0.5 0.65756655
66.5 0.5 0.64970786
67 0.5 0.64178814
67.5 0.5 0.63380755
68 0.5 0.62576627
68.5 0.5 0.61766451
69 0.5 0.60950245
69.5 0.5 0.60128029
70 0.5 0.59299826
70.5 0.5 0.58465658
71 0.5 0.57625547
71.5 0.5 0.56779518
72 0.5 0.55927596
72.5 0.5 0.55069807
73 0.5 0.54206177
73.5 0.5 0.53336734
74 0.5 0.52461507
74.5 0.5 0.51580525
75 0.5 0.50693819
75.5 0.5 0.49801419
76 0.5 0.48903358
76.5 0.5 0.4799967
77 0.5 0.47090388
77.5 0.5 0.46175547
78 0.5 0.45255183
78.5 0.5 0.44329333
79 0.5 0.43398034
79.5 0.5 0.42461326
80 0.5 0.41519249
80.5 0.5 0.40571841
81 0.5 0.39619146
81.5 0.5 0.38661205
82 0.5 0.37698063
82.5 0.5 0.36729762
83 0.5 0.35756349
83.5 0.5 0.34777869
84 0.5 0.33794369
84.5 0.5 0.32805899
85 0.5 0.31812505
85.5 0.5 0.30814238
86 0.5 0.2981115
86.5 0.5 0.28803291
87 0.5 0.27790713
87.5 0.5 0.26773471
88 0.5 0.25751619
88.5 0.5 0.24725211
89 0.5 0.23694304
89.5 0.5 0.22658955
90 0.5 0.21619221
90.5 0.5 0.20575161
91 0.5 0.19526835
91.5 0.5 0.18474302
92 0.5 0.17417624
92.5 0.5 0.16356864
93 0.5 0.15292083
93.5 0.5 0.14223345
94 0.5 0.13150715
94.5 0.5 0.12074257
95 0.5 0.10994038
95.5 0.5 0.099101247
96 0.5 0.088225838
96.5 0.5 0.077314838
97 0.5 0.066368935
97.5 0.5 0.055388825
98 0.5 0.04437521
98.5 0.5 0.033328801
99 0.5 0.022250313
99.5 0.5 0.01114047
100 0.5 0
0 1 1.172713
0.5 1 1.1722432
1 1 1.1717305
1.5 1 1.1711747
2 1 1.1705757
2.5 1 1.169933
3 1 1.1692465
3.5 1 1.1685161
4 1 1.1677413
4.5 1 1.1669221
5 1 1.1660582
5.5 1 1.1651493
6 1 1.1641952
6.5 1 1.1631956
7 1 1.1621504
7.5 1 1.1610593
8 1 1.1599221
8.5 1 1.1587384
9 1 1.1575082
9.5 1 1.1562311
10 1 1.1549069
10.5 1 1.1535354
11 1 1.1521163
11.5 1 1.1506494
12 1 1.1491345
12.5 1 1.1475713
13 1 1.1459595
13.5 1 1.144299
14 1 1.1425895
14.5 1 1.1408307
15 1 1.1390225
15.5 1 1.1371645
16 1 1.1352566
16.5 1 1.1332984
17 1 1.1312899
17.5 1 1.1292306
18 1 1.1271205
18.5 1 1.1249592
19 1 1.1227465
19.5 1 1.1204822
20 1 1.118166
20.5 1 1.1157978
21 1 1.1133772
21.5 1 1.1109041
22 1 1.1083781
22.5 1 1.1057992
23 1 1.1031669
23.5 1 1.1004812
24 1 1.0977418
24.5 1 1.0949485
25 1 1.0921009
25.5 1 1.089199
26 1 1.0862425
26.5 1 1.0832311
27 1 1.0801646
27.5 1 1.0770429
28 1 1.0738657
28.5 1 1.0706327
29 1 1.0673438
29.5 1 1.0639988
30 1 1.0605974
30.5 1 1.0571394
31 1 1.0536247
31.5 1 1.050053
32 1 1.046424
32.5 1 1.0427377
33 1 1.0389938
33.5 1 1.0351922
34 1 1.0313325
34.5 1 1.0274147
35 1 1.0234385
35.5 1 1.0194038
36 1 1.0153103
36.5 1 1.0111579
37 1 1.0069465
37.5 1 1.0026757
38 1 0.99834555
38.5 1 0.99395576
39 1 0.9895062
39.5 1 0.98499671
40 1 0.98042712
40.5 1 0.97579727
41 1 0.97110702
41.5 1 0.96635622
42 1 0.96154473
42.5 1 0.95667239
43 1 0.95173908
43.5 1 0.94674467
44 1 0.94168902
44.5 1 0.93657201
45 1 0.93139351
45.5 1 0.92615343
46 1 0.92085163
46.5 1 0.91548802
47 1 0.9100625
47.5 1 0.90457497
48 1 0.89902533
48.5 1 0.8934135
49 1 0.88773939
49.5 1 0.88200294
50 1 0.87620406
50.5 1 0.8703427
51 1 0.86441879
51.5 1 0.85843228
52 1 0.85238311
52.5 1 0.84627125
53 1 0.84009665
53.5 1 0.83385929
54 1 0.82755914
54.5 1 0.82119617
55 1 0.81477038
55.5 1 0.80828176
56 1 0.80173031
56.5 1 0.79511603
57 1 0.78843894
57.5 1 0.78169905
58 1 0.7748964
58.5 1 0.76803101
59 1 0.76110293
59.5 1 0.75411219
60 1 0.74705887
60.5 1 0.73994301
61 1 0.73276469
61.5 1 0.72552398
62 1 0.71822097
62.5 1 0.71085574
63 1 0.70342841
63.5 1 0.69593907
64 1 0.68838783
64.5 1 0.68077483
65 1 0.67310019
65.5 1 0.66536405
66 1 0.65756655
66.5 1 0.64970786
67 1 0.64178814
67.5 1 0.63380755
68 1 0.62576627
68.5 1 0.61766451
69 1 0.60950245
69.5 1 0.60128029
70 1 0.59299826
70.5 1 0.58465658
71 1 0.57625547
71.5 1 0.56779518
72 1 0.55927596
72.5 1 0.55069807
73 1 0.54206177
73.5 1 0.53336734
74 1 0.52461507
74.5 1 0.51580525
75 1 0.50693819
75.5 1 0.49801419
76 1 0.48903358
76.5 1 0.4799967
77 1 0.47090388
77.5 1 0.46175547
78 1 0.45255183
78.5 1 0.44329333
79 1 0.43398034
79.5 1 0.42461326
80 1 0.41519249
80.5 1 0.40571841
81 1 0.39619146
81.5 1 0.38661205
82 1 0.37698063
82.5 1 0.36729762
83 1 0.35756349
83.5 1 0.34777869
84 1 0.33794369
84.5 1 0.32805899
85 1 0.31812505
85.5 1 0.30814238
86 1 0.2981115
86.5 1 0.28803291
87 1 0.27790713
87.5 1 0.26773471
88 1 0.25751619
88.5 1 0.24725211
89 1 0.23694304
89.5 1 0.22658955
90 1 0.21619221
90.5 1 0.20575161
91 1 0.19526835
91.5 1 0.18474302
92 1 0.17417624
92.5 1 0.16356864
93 1 0.15292083
93.5 1 0.14223345
94 1 0.13150715
94.5 1 0.12074257
95 1 0.10994038
95.5 1 0.099101247
96 1 0.088225838
96.5 1 0.077314838
97 1 0.066368935
97.5 1 0.055388825
98 1 0.04437521
98.5 1 0.033328801
99 1 0.022250313
99.5 1 0.01114047
100 1 0
0 1.5 1.172713
0.5 1.5 1.1722432
1 1.5 1.1717305
1.5 1.5 1.1711747
2 1.5 1.1705757
2.5 1.5 1.169933
3 1.5 1.1692465
3.5 1.5 1.1685161
4 1.5 1.1677413
4.5 1.5 1.1669221
5 1.5 1.1660582
5.5 1.5 1.1651493
6 1.5 1.1641952
6.5 1.5 1.1631956
7 1.5 1.1621504
7.5 1.5 1.1610593
8 1.5 1.1599221
8.5 1.5 1.1587384
9 1.5 1.1575082
9.5 1.5 1.1562311
10 1.5 1.1549069
10.5 1.5 1.1535354
11 1.5 1.1521163
11.5 1.5 1.1506494
12 1.5 1.1491345
12.5 1.5 1.1475713
13 1.5 1.1459595
13.5 1.5 1.144299
14 1.5 1.1425895
14.5 1.5 1.1408307
15 1.5 1.1390225
15.5 1.5 1.1371645
16 1.5 1.1352566
16.5 1.5 1.1332984
17 1.5 1.1312899
17.5 1.5 1.1292306
18 1.5 1.1271205
18.5 1.5 1.1249592
19 1.5 1.1227465
19.5 1.5 1.1204822
20 1.5 1.118166
20.5 1.5 1.1157978
21 1.5 1.1133772
21.5 1.5 1.1109041
22 1.5 1.1083781
22.5 1.5 1.1057992
23 1.5 1.1031669
23.5 1.5 1.1004812
24 1.5 1.0977418
24.5 1.5 1.0949485
25 1.5 1.0921009
25.5 1.5 1.089199
26 1.5 1.0862425
26.5 1.5 1.0832311
27 1.5 1.0801646
27.5 1.5 1.0770429
28 1.5 1.0738657
28.5 1.5 1.0706327
29 1.5 1.0673438
29.5 1.5 1.0639988
30 1.5 1.0605974
30.5 1.5 1.0571394
31 1.5 1.0536247
31.5 1.5 1.050053
32 1.5 1.046424
32.5 1.5 1.0427377
33 1.5 1.0389938
33.5 1.5 1.0351922
34 1.5 1.0313325
34.5 1.5 1.0274147
35 1.5 1.0234385
35.5 1.5 1.0194038
36 1.5 1.0153103
36.5 1.5 1.0111579
37 1.5 1.0069465
37.5 1.5 1.0026757
38 1.5 0.99834555
38.5 1.5 0.99395576
39 1.5 0.9895062
39.5 1.5 0.98499671
40 1.5 0.98042712
40.5 1.5 0.97579727
41 1.5 0.97110702
41.5 1.5 0.96635622
42 1.5 0.96154473
42.5 1.5 0.95667239
43 1.5 0.95173908
43.5 1.5 0.94674467
44 1.5 0.94168902
44.5 1.5 0.93657201
45 1.5 0.93139351
45.5 1.5 0.92615343
46 1.5 0.92085163
46.5 1.5 0.91548802
47 1.5 0.9100625
47.5 1.5 0.90457497
48 1.5 0.89902533
48.5 1.5 0.8934135
49 1.5 0.88773939
49.5 1.5 0.88200294
50 1.5 0.87620406
50.5 1.5 0.8703427
51 1.5 0.86441879
51.5 1.5 0.85843228
52 1.5 0.85238311
52.5 1.5 0.84627125
53 1.5 0.84009665
53.5 1.5 0.83385929
54 1.5 0.82755914
54.5 1.5 0.82119617
55 1.5 0.81477038
55.5 1.5 0.80828176
56 1.5 0.80173031
56.5 1.5 0.79511603
57 1.5 0.78843894
57.5 1.5 0.78169905
58 1.5 0.7748964
58.5 1.5 0.76803101
59 1.5 0.76110293
59.5 1.5 0.75411219
60 1.5 0.74705887
60.5 1.5 0.73994301
61 1.5 0.73276469
61.5 1.5 0.72552398
62 1.5 0.71822097
62.5 1.5 0.71085574
63 1.5 0.70342841
63.5 1.5 0.69593907
64 1.5 0.68838783
64.5 1.5 0.68077483
65 1.5 0.67310019
65.5 1.5 0.66536405
66 1.5 0.65756655
66.5 1.5 0.64970786
67 1.5 0.64178814
67.5 1.5 0.63380755
68 1.5 0.62576627
68.5 1.5 0.61766451
69 1.5 0.60950245
69.5 1.5 0.60128029
70 1.5 0.59299826
70.5 1.5 0.58465658
71 1.5 0.57625547
71.5 1.5 0.56779518
72 1.5 0.55927596
72.5 1.5 0.55069807
73 1.5 0.54206177
73.5 1.5 0.53336734
74 1.5 0.52461507
74.5 1.5 0.51580525
75 1.5 0.50693819
75.5 1.5 0.49801419
76 1.5 0.48903358
76.5 1.5 0.4799967
77 1.5 0.47090388
77.5 1.5 0.46175547
78 1.5 0.45255183
78.5 1.5 0.44329333
79 1.5 0.43398034
79.5 1.5 0.42461326
80 1.5 0.41519249
80.5 1.5 0.40571841
81 1.5 0.39619146
81.5 1.5 0.38661205
82 1.5 0.37698063
82.5 1.5 0.36729762
83 1.5 0.35756349
83.5 1.5 0.34777869
84 1.5 0.33794369
84.5 1.5 0.32805899
85 1.5 0.31812505
85.5 1.5 0.30814238
86 1.5 0.2981115
86.5 1.5 0.28803291
87 1.5 0.27790713
87.5 1.5 0.26773471
88 1.5 0.25751619
88.5 1.5 0.24725211
89 1.5 0.23694304
89.5 1.5 0.22658955
90 1.5 0.21619221
90.5 1.5 0.20575161
91 1.5 0.19526835
91.5 1.5 0.18474302
92 1.5 0.17417624
92.5 1.5 0.16356864
93 1.5 0.15292083
93.5 1.5 0.14223345
94 1.5 0.13150715
94.5 1.5 0.12074257
95 1.5 0.10994038
95.5 1.5 0.099101247
96 1.5 0.088225838
96.5 1.5 0.077314838
97 1.5 0.066368935
97.5 1.5 0.055388825
98 1.5 0.04437521
98.5 1.5 0.033328801
99 1.5 0.022250313
99.5 1.5 0.01114047
100 1.5 0
0 2 1.172713
0.5 2 1.1722432
1 2 1.1717305
1.5 2 1.1711747
2 2 1.1705757
2.5 2 1.169933
3 2 1.1692465
3.5 2 1.1685161
4 2 1.1677413
4.5 2 1.1669221
5 2 1.1660582
5.5 2 1.1651493
6 2 1.1641952
6.5 2 1.1631956
7 2 1.1621504
7.5 2 1.1610593
8 2 1.1599221
8.5 2 1.1587384
9 2 1.1575082
9.5 2 1.1562311
10 2 1.1549069
10.5 2 1.1535354
11 2 1.1521163
11.5 2 1.1506494
12 2 1.1491345
12.5 2 1.1475713
13 2 1.1459595
13.5 2 1.144299
14 2 1.1425895
14.5 2 1.1408307
15 2 1.1390225
15.5 2 1.1371645
16 2 1.1352566
16.5 2 1.1332984
17 2 1.1312899
17.5 2 1.1292306
18 2 1.1271205
18.5 2 1.1249592
19 2 1.1227465
19.5 2 1.1204822
20 2 1.118166
20.5 2 1.1157978
21 2 1.1133772
21.5 2 1.1109041
22 2 1.1083781
22.5 2 1.1057992
23 2 1.1031669
23.5 2 1.1004812
24 2 1.0977418
24.5 2 1.0949485
25 2 1.0921009
25.5 2 1.089199
26 2 1.0862425
26.5 2 1.0832311
27 2 1.0801646
27.5 2 1.0770429
28 2 1.0738657
28.5 2 1.0706327
29 2 1.0673438
29.5 2 1.0639988
30 2 1.0605974
30.5 2 1.0571394
31 2 1.0536247
31.5 2 1.050053
32 2 1.046424
32.5 2 1.0427377
33 2 1.0389938
33.5 2 1.0351922
34 2 1.0313325
34.5 2 1.0274147
35 2 1.0234385
35.5 2 1.0194038
36 2 1.0153103
36.5 2 1.0111579
37 2 1.0069465
37.5 2 1.0026757
38 2 0.99834555
38.5 2 0.99395576
39 2 0.9895062
39.5 2 0.98499671
40 2 0.98042712
40.5 2 0.97579727
41 2 0.97110702
41.5 2 0.96635622
42 2 0.96154473
42.5 2 0.95667239
43 2 0.95173908
43.5 2 0.94674467
44 2 0.94168902
44.5 2 0.93657201
45 2 0.93139351
45.5 2 0.92615343
46 2 0.92085163
46.5 2 0.91548802
47 2 0.9100625
47.5 2 0.90457497
48 2 0.89902533
48.5 2 0.8934135
49 2 0.88773939
49.5 2 0.88200294
50 2 0.87620406
50.5 2 0.8703427
51 2 0.86441879
51.5 2 0.85843228
52 2 0.85238311
52.5 2 0.84627125
53 2 0.84009665
53.5 2 0.83385929
54 2 0.82755914
54.5 2 0.82119617
55 2 0.81477038
55.5 2 0.80828176
56 2 0.80173031
56.5 2 0.79511603
57 2 0.78843894
57.5 2 0.78169905
58 2 0.7748964
58.5 2 0.76803101
59 2 0.76110293
59.5 2 0.75411219
60 2 0.74705887
60.5 2 0.73994301
61 2 0.73276469
61.5 2 0.72552398
62 2 0.71822097
62.5 2 0.71085574
63 2 0.70342841
63.5 2 0.69593907
64 2 0.68838783
64.5 2 0.68077483
65 2 0.67310019
65.5 2 0.66536405
66 2 0.65756655
66.5 2 0.64970786
67 2 0.64178814
67.5 2 0.63380755
68 2 0.62576627
68.5 2 0.61766451
69 2 0.60950245
69.5 2 0.60128029
70 2 0.59299826
70.5 2 0.58465658
71 2 0.57625547
71.5 2 0.56779518
72 2 0.55927596
72.5 2 0.55069807
73 2 0.54206177
73.5 2 0.53336734
74 2 0.52461507
74.5 2 0.51580525
75 2 0.50693819
75.5 2 0.49801419
76 2 0.48903358
76.5 2 0.4799967
77 2 0.47090388
77.5 2 0.46175547
78 2 0.45255183
78.5 2 0.44329333
79 2 0.43398034
79.5 2 0.42461326
80 2 0.41519249
80.5 2 0.40571841
81 2 0.39619146
81.5 2 0.38661205
82 2 0.37698063
82.5 2 0.36729762
83 2 0.35756349
83.5 2 0.34777869
84 2 0.33794369
84.5 2 0.32805899
85 2 0.31812505
85.5 2 0.30814238
86 2 0.2981115
86.5 2 0.28803291
87 2 0.27790713
87.5 2 0.26773471
88 2 0.25751619
88.5 2 0.24725211
89 2 0.23694304
89.5 2 0.22658955
90 2 0.21619221
90.5 2 0.20575161
91 2 0.19526835
91.5 2 0.18474302
92 2 0.17417624
92.5 2 0.16356864
93 2 0.15292083
93.5 2 0.14223345
94 2 0.13150715
94.5 2 0.12074257
95 2 0.10994038
95.5 2 0.099101247
96 2 0.088225838
96.5 2 0.077314838
97 2 0.066368935
97.5 2 0.055388825
98 2 0.04437521
98.5 2 0.033328801
99 2 0.022250313
99.5 2 0.01114047
100 2 0
0 2.5 1.172713
0.5 2.5 1.1722432
1 2.5 1.1717305
1.5 2.5 1.1711747
2 2.5 1.1705757
2.5 2.5 1.169933
3 2.5 1.1692465
3.5 2.5 1.1685161
4 2.5 1.1677413
4.5 2.5 1.1669221
5 2.5 1.1660582
5.5 2.5 1.1651493
6 2.5 1.1641952
6.5 2.5 1.1631956
7 2.5 1.1621504
7.5 2.5 1.1610593
8 2.5 1.1599221
8.5 2.5 1.1587384
9 2.5 1.1575082
9.5 2.5 1.1562311
10 2.5 1.1549069
10.5 2.5 1.1535354
11 2.5 1.1521163
11.5 2.5 1.1506494
12 2.5 1.1491345
12.5 2.5 1.1475713
13 2.5 1.1459595
13.5 2.5 1.144299
14 2.5 1.1425895
14.5 2.5 1.1408307
15 2.5 1.1390225
15.5 2.5 1.1371645
16 2.5 1.1352566
16.5 2.5 1.1332984
17 2.5 1.1312899
17.5 2.5 1.1292306
18 2.5 1.1271205
18.5 2.5 1.1249592
19 2.5 1.1227465
19.5 2.5 1.1204822
20 2.5 1.118166
20.5 2.5 1.1157978
21 2.5 1.1133772
21.5 2.5 1.1109041
22 2.5 1.1083781
22.5 2.5 1.1057992
23 2.5 1.1031669
23.5 2.5 1.1004812
24 2.5 1.0977418
24.5 2.5 1.0949485
25 2.5 1.0921009
25.5 2.5 1.089199
26 2.5 1.0862425
26.5 2.5 1.0832311
27 2.5 1.0801646
27.5 2.5 1.0770429
28 2.5 1.0738657
28.5 2.5 1.0706327
29 2.5 1.0673438
29.5 2.5 1.0639988
30 2.5 1.0605974
30.5 2.5 1.0571394
31 2.5 1.0536247
31.5 2.5 1.050053
32 2.5 1.046424
32.5 2.5 1.0427377
33 2.5 1.0389938
33.5 2.5 1.0351922
34 2.5 1.0313325
34.5 2.5 1.0274147
35 2.5 1.0234385
35.5 2.5 1.0194038
36 2.5 1.0153103
36.5 2.5 1.0111579
37 2.5 1.0069465
37.5 2.5 1.0026757
38 2.5 0.99834555
38.5 2.5 0.99395576
39 2.5 0.9895062
39.5 2.5 0.98499671
40 2.5 0.98042712
40.5 2.5 0.97579727
41 2.5 0.97110702
41.5 2.5 0.96635622
42 2.5 0.96154473
42.5 2.5 0.95667239
43 2.5 0.95173908
43.5 2.5 0.94674467
44 2.5 0.94168902
44.5 2.5 0.93657201
45 2.5 0.93139351
45.5 2.5 0.92615343
46 2.5 0.92085163
46.5 2.5 0.91548802
47 2.5 0.9100625
47.5 2.5 0.90457497
48 2.5 0.89902533
48.5 2.5 0.8934135
49 2.5 0.88773939
49.5 2.5 0.88200294
50 2.5 0.87620406
50.5 2.5 0.8703427
51 2.5 0.86441879
51.5 2.5 0.85843228
52 2.5 0.85238311
52.5 2.5 0.84627125
53 2.5 0.84009665
53.5 2.5 0.83385929
54 2.5 0.82755914
54.5 2.5 0.82119617
55 2.5 0.81477038
55.5 2.5 0.80828176
56 2.5 0.80173031
56.5 2.5 0.79511603
57 2.5 0.78843894
57.5 2.5 0.78169905
58 2.5 0.7748964
58.5 2.5 0.76803101
59 2.5 0.76110293
59.5 2.5 0.75411219
60 2.5 0.74705887
60.5 2.5 0.73994301
61 2.5 0.73276469
61.5 2.5 0.72552398
62 2.5 0.71822097
62.5 2.5 0.71085574
63 2.5 0.70342841
63.5 2.5 0.69593907
64 2.5 0.68838783
64.5 2.5 0.68077483
65 2.5 0.67310019
65.5 2.5 0.66536405
66 2.5 0.65756655
66.5 2.5 0.64970786
67 2.5 0.64178814
67.5 2.5 0.63380755
68 2.5 0.62576627
68.5 2.5 0.61766451
69 2.5 0.60950245
69.5 2.5 0.60128029
70 2.5 0.59299826
70.5 2.5 0.58465658
71 2.5 0.57625547
71.5 2.5 0.56779518
72 2.5 0.55927596
72.5 2.5 0.55069807
73 2.5 0.54206177
73.5 2.5 0.53336734
74 2.5 0.52461507
74.5 2.5 0.51580525
75 2.5 0.50693819
75.5 2.5 0.49801419
76 2.5 0.48903358
76.5 2.5 0.4799967
77 2.5 0.47090388
77.5 2.5 0.46175547
78 2.5 0.45255183
78.5 2.5 0.44329333
79 2.5 0.43398034
79.5 2.5 0.42461326
80 2.5 0.41519249
80.5 2.5 0.40571841
81 2.5 0.39619146
81.5 2.5 0.38661205
82 2.5 0.37698063
82.5 2.5 0.36729762
83 2.5 0.35756349
83.5 2.5 0.34777869
84 2.5 0.33794369
84.5 2.5 0.32805899
85 2.5 0.31812505
85.5 2.5 0.30814238
86 2.5 0.2981115
86.5 2.5 0.28803291
87 2.5 0.27790713
87.5 2.5 0.26773471
88 2.5 0.25751619
88.5 2.5 0.24725211
89 2.5 0.23694304
89.5 2.5 0.22658955
90 2.5 0.21619221
90.5 2.5 0.20575161
91 2.5 0.19526835
91.5 2.5 0.18474302
92 2.5 0.17417624
92.5 2.5 0.16356864
93 2.5 0.15292083
93.5 2.5 0.14223345
94 2.5 0.13150715
94.5 2.5 0.12074257
95 2.5 0.10994038
95.5 2.5 0.099101247
96 2.5 0.088225838
96.5 2.5 0.077314838
97 2.5 0.066368935
97.5 2.5 0.055388825
98 2.5 0.04437521
98.5 2.5 0.033328801
99 2.5 0.022250313
99.5 2.5 0.01114047
100 2.5 0

[2D_TRIANGLES]
;;V1 V2 V3 MANNINGS_N INIT_DEPTH
0 1 202 0.0328 0
0 202 201 0.0328 0
1 2 202 0.0328 0
2 203 202 0.0328 0
2 3 204 0.0328 0
2 204 203 0.0328 0
3 4 204 0.0328 0
4 205 204 0.0328 0
4 5 206 0.0328 0
4 206 205 0.0328 0
5 6 206 0.0328 0
6 207 206 0.0328 0
6 7 208 0.0328 0
6 208 207 0.0328 0
7 8 208 0.0328 0
8 209 208 0.0328 0
8 9 210 0.0328 0
8 210 209 0.0328 0
9 10 210 0.0328 0
10 211 210 0.0328 0
10 11 212 0.0328 0
10 212 211 0.0328 0
11 12 212 0.0328 0
12 213 212 0.0328 0
12 13 214 0.0328 0
12 214 213 0.0328 0
13 14 214 0.0328 0
14 215 214 0.0328 0
14 15 216 0.0328 0
14 216 215 0.0328 0
15 16 216 0.0328 0
16 217 216 0.0328 0
16 17 218 0.0328 0
16 218 217 0.0328 0
17 18 218 0.0328 0
18 219 218 0.0328 0
18 19 220 0.0328 0
18 220 219 0.0328 0
19 20 220 0.0328 0
20 221 220 0.0328 0
20 21 222 0.0328 0
20 222 221 0.0328 0
21 22 222 0.0328 0
22 223 222 0.0328 0
22 23 224 0.0328 0
22 224 223 0.0328 0
23 24 224 0.0328 0
24 225 224 0.0328 0
24 25 226 0.0328 0
24 226 225 0.0328 0
25 26 226 0.0328 0
26 227 226 0.0328 0
26 27 228 0.0328 0
26 228 227 0.0328 0
27 28 228 0.0328 0
28 229 228 0.0328 0
28 29 230 0.0328 0
28 230 229 0.0328 0
29 30 230 0.0328 0
30 231 230 0.0328 0
30 31 232 0.0328 0
30 232 231 0.0328 0
31 32 232 0.0328 0
32 233 232 0.0328 0
32 33 234 0.0328 0
32 234 233 0.0328 0
33 34 234 0.0328 0
34 235 234 0.0328 0
34 35 236 0.0328 0
34 236 235 0.0328 0
35 36 236 0.0328 0
36 237 236 0.0328 0
36 37 238 0.0328 0
36 238 237 0.0328 0
37 38 238 0.0328 0
38 239 238 0.0328 0
38 39 240 0.0328 0
38 240 239 0.0328 0
39 40 240 0.0328 0
40 241 240 0.0328 0
40 41 242 0.0328 0
40 242 241 0.0328 0
41 42 242 0.0328 0
42 243 242 0.0328 0
42 43 244 0.0328 0
42 244 243 0.0328 0
43 44 244 0.0328 0
44 245 244 0.0328 0
44 45 246 0.0328 0
44 246 245 0.0328 0
45 46 246 0.0328 0
46 247 246 0.0328 0
46 47 248 0.0328 0
46 248 247 0.0328 0
47 48 248 0.0328 0
48 249 248 0.0328 0
48 49 250 0.0328 0
48 250 249 0.0328 0
49 50 250 0.0328 0
50 251 250 0.0328 0
50 51 252 0.0328 0
50 252 251 0.0328 0
51 52 252 0.0328 0
52 253 252 0.0328 0
52 53 254 0.0328 0
52 254 253 0.0328 0
53 54 254 0.0328 0
54 255 254 0.0328 0
54 55 256 0.0328 0
54 256 255 0.0328 0
55 56 256 0.0328 0
56 257 256 0.0328 0
56 57 258 0.0328 0
56 258 257 0.0328 0
57 58 258 0.0328 0
58 259 258 0.0328 0
58 59 260 0.0328 0
58 260 259 0.0328 0
59 60 260 0.0328 0
60 261 260 0.0328 0
60 61 262 0.0328 0
60 262 261 0.0328 0
61 62 262 0.0328 0
62 263 262 0.0328 0
62 63 264 0.0328 0
62 264 263 0.0328 0
63 64 264 0.0328 0
64 265 264 0.0328 0
64 65 266 0.0328 0
64 266 265 0.0328 0
65 66 266 0.0328 0
66 267 266 0.0328 0
66 67 268 0.0328 0
66 268 267 0.0328 0
67 68 268 0.0328 0
68 269 268 0.0328 0
68 69 270 0.0328 0
68 270 269 0.0328 0
69 70 270 0.0328 0
70 271 270 0.0328 0
70 71 272 0.0328 0
70 272 271 0.0328 0
71 72 272 0.0328 0
72 273 272 0.0328 0
72 73 274 0.0328 0
72 274 273 0.0328 0
73 74 274 0.0328 0
74 275 274 0.0328 0
74 75 276 0.0328 0
74 276 275 0.0328 0
75 76 276 0.0328 0
76 277 276 0.0328 0
76 77 278 0.0328 0
76 278 277 0.0328 0
77 78 278 0.0328 0
78 279 278 0.0328 0
78 79 280 0.0328 0
78 280 279 0.0328 0
79 80 280 0.0328 0
80 281 280 0.0328 0
80 81 282 0.0328 0
80 282 281 0.0328 0
81 82 282 0.0328 0
82 283 282 0.0328 0
82 83 284 0.0328 0
82 284 283 0.0328 0
83 84 284 0.0328 0
84 285 284 0.0328 0
84 85 286 0.0328 0
84 286 285 0.0328 0
85 86 286 0.0328 0
86 287 286 0.0328 0
86 87 288 0.0328 0
86 288 287 0.0328 0
87 88 288 0.0328 0
88 289 288 0.0328 0
88 89 290 0.0328 0
88 290 289 0.0328 0
89 90 290 0.0328 0
90 291 290 0.0328 0
90 91 292 0.0328 0
90 292 291 0.0328 0
91 92 292 0.0328 0
92 293 292 0.0328 0
92 93 294 0.0328 0
92 294 293 0.0328 0
93 94 294 0.0328 0
94 295 294 0.0328 0
94 95 296 0.0328 0
94 296 295 0.0328 0
95 96 296 0.0328 0
96 297 296 0.0328 0
96 97 298 0.0328 0
96 298 297 0.0328 0
97 98 298 0.0328 0
98 299 298 0.0328 0
98 99 300 0.0328 0
98 300 299 0.0328 0
99 100 300 0.0328 0
100 301 300 0.0328 0
100 101 302 0.0328 0
100 302 301 0.0328 0
101 102 302 0.0328 0
102 303 302 0.0328 0
102 103 304 0.0328 0
102 304 303 0.0328 0
103 104 304 0.0328 0
104 305 304 0.0328 0
104 105 306 0.0328 0
104 306 305 0.0328 0
105 106 306 0.0328 0
106 307 306 0.0328 0
106 107 308 0.0328 0
106 308 307 0.0328 0
107 108 308 0.0328 0
108 309 308 0.0328 0
108 109 310 0.0328 0
108 310 309 0.0328 0
109 110 310 0.0328 0
110 311 310 0.0328 0
110 111 312 0.0328 0
110 312 311 0.0328 0
111 112 312 0.0328 0
112 313 312 0.0328 0
112 113 314 0.0328 0
112 314 313 0.0328 0
113 114 314 0.0328 0
114 315 314 0.0328 0
114 115 316 0.0328 0
114 316 315 0.0328 0
115 116 316 0.0328 0
116 317 316 0.0328 0
116 117 318 0.0328 0
116 318 317 0.0328 0
117 118 318 0.0328 0
118 319 318 0.0328 0
118 119 320 0.0328 0
118 320 319 0.0328 0
119 120 320 0.0328 0
120 321 320 0.0328 0
120 121 322 0.0328 0
120 322 321 0.0328 0
121 122 322 0.0328 0
122 323 322 0.0328 0
122 123 324 0.0328 0
122 324 323 0.0328 0
123 124 324 0.0328 0
124 325 324 0.0328 0
124 125 326 0.0328 0
124 326 325 0.0328 0
125 126 326 0.0328 0
126 327 326 0.0328 0
126 127 328 0.0328 0
126 328 327 0.0328 0
127 128 328 0.0328 0
128 329 328 0.0328 0
128 129 330 0.0328 0
128 330 329 0.0328 0
129 130 330 0.0328 0
130 331 330 0.0328 0
130 131 332 0.0328 0
130 332 331 0.0328 0
131 132 332 0.0328 0
132 333 332 0.0328 0
132 133 334 0.0328 0
132 334 333 0.0328 0
133 134 334 0.0328 0
134 335 334 0.0328 0
134 135 336 0.0328 0
134 336 335 0.0328 0
135 136 336 0.0328 0
136 337 336 0.0328 0
136 137 338 0.0328 0
136 338 337 0.0328 0
137 138 338 0.0328 0.00300012
138 339 338 0.0328 0.00572081
138 139 340 0.0328 0.0139229
138 340 339 0.0328 0.0111822
139 140 340 0.0328 0.0194243
140 341 340 0.0328 0.022185
140 141 342 0.0328 0.0305068
140 342 341 0.0328 0.0277262
141 142 342 0.0328 0.0360877
142 343 342 0.0328 0.0388881
142 143 344 0.0328 0.0473287
142 344 343 0.0328 0.0445086
143 144 344 0.0328 0.0529885
144 345 344 0.0328 0.0558282
144 145 346 0.0328 0.0643866
144 346 345 0.0328 0.0615273
145 146 346 0.0328 0.0701246
146 347 346 0.0328 0.0730034
146 147 348 0.0328 0.0816785
146 348 347 0.0328 0.0787803
147 148 348 0.0328 0.087494
148 349 348 0.0328 0.0904115
148 149 350 0.0328 0.0992021
148 350 349 0.0328 0.0962655
149 150 350 0.0328 0.105094
150 351 350 0.0328 0.10805
150 151 352 0.0328 0.116955
150 352 351 0.0328 0.11398
151 152 352 0.0328 0.122923
152 353 352 0.0328 0.125917
152 153 354 0.0328 0.134935
152 354 353 0.0328 0.131923
153 154 354 0.0328 0.140978
154 355 354 0.0328 0.144009
154 155 356 0.0328 0.153139
154 356 355 0.0328 0.15009
155 156 356 0.0328 0.159256
156 357 356 0.0328 0.162324
156 157 358 0.0328 0.171564
156 358 357 0.0328 0.168478
157 158 358 0.0328 0.177755
158 359 358 0.0328 0.180859
158 159 360 0.0328 0.190208
158 360 359 0.0328 0.187086
159 160 360 0.0328 0.196471
160 361 360 0.0328 0.199611
160 161 362 0.0328 0.209068
160 362 361 0.0328 0.205909
161 162 362 0.0328 0.215401
162 363 362 0.0328 0.218577
162 163 364 0.0328 0.228139
162 364 363 0.0328 0.224946
163 164 364 0.0328 0.234542
164 365 364 0.0328 0.237753
164 165 366 0.0328 0.247419
164 366 365 0.0328 0.244191
165 166 366 0.0328 0.253891
166 367 366 0.0328 0.257136
166 167 368 0.0328 0.266904
166 368 367 0.0328 0.263642
167 168 368 0.0328 0.273444
168 369 368 0.0328 0.276722
168 169 370 0.0328 0.28659
168 370 369 0.0328 0.283295
169 170 370 0.0328 0.293196
170 371 370 0.0328 0.296508
170 171 372 0.0328 0.306474
170 372 371 0.0328 0.303146
171 172 372 0.0328 0.313145
172 373 372 0.0328 0.316489
172 173 374 0.0328 0.326552
172 374 373 0.0328 0.323192
173 174 374 0.0328 0.333286
174 375 374 0.0328 0.336662
174 175 376 0.0328 0.346818
174 376 375 0.0328 0.343428
175 176 376 0.0328 0.353615
176 377 376 0.0328 0.357022
176 177 378 0.0328 0.36727
176 378 377 0.0328 0.363849
177 178 378 0.0328 0.374128
178 379 378 0.0328 0.377565
178 179 380 0.0328 0.387903
178 380 379 0.0328 0.384452
179 180 380 0.0328 0.39482
180 381 380 0.0328 0.398286
180 181 382 0.0328 0.408712
180 382 381 0.0328 0.405232
181 182 382 0.0328 0.415687
182 383 382 0.0328 0.419181
182 183 384 0.0328 0.429692
182 384 383 0.0328 0.426184
183 184 384 0.0328 0.436723
184 385 384 0.0328 0.440245
184 185 386 0.0328 0.450839
184 386 385 0.0328 0.447304
185 186 386 0.0328 0.457925
186 387 386 0.0328 0.461474
186 187 388 0.0328 0.472148
186 388 387 0.0328 0.468586
187 188 388 0.0328 0.479286
188 389 388 0.0328 0.482861
188 189 390 0.0328 0.493613
188 390 389 0.0328 0.490025
189 190 390 0.0328 0.500802
190 391 390 0.0328 0.504403
190 191 392 0.0328 0.51523
190 392 391 0.0328 0.511617
191 192 392 0.0328 0.522468
192 393 392 0.0328 0.526093
192 193 394 0.0328 0.536992
192 394 393 0.0328 0.533355
193 194 394 0.0328 0.544278
194 395 394 0.0328 0.547926
194 195 396 0.0328 0.558895
194 396 395 0.0328 0.555235
195 196 396 0.0328 0.566226
196 397 396 0.0328 0.569898
196 197 398 0.0328 0.580933
196 398 397 0.0328 0.577251
197 198 398 0.0328 0.588308
198 399 398 0.0328 0.592001
198 199 400 0.0328 0.6031
198 400 399 0.0328 0.599397
199 200 400 0.0328 0.610517
200 401 400 0.0328 0.61423
201 202 402 0.0328 0
202 403 402 0.0328 0
202 203 404 0.0328 0
202 404 403 0.0328 0
203 204 404 0.0328 0
204 405 404 0.0328 0
204 205 406 0.0328 0
204 406 405 0.0328 0
205 206 406 0.0328 0
206 407 406 0.0328 0
206 207 408 0.0328 0
206 408 407 0.0328 0
207 208 408 0.0328 0
208 409 408 0.0328 0
208 209 410 0.0328 0
208 410 409 0.0328 0
209 210 410 0.0328 0
210 411 410 0.0328 0
210 211 412 0.0328 0
210 412 411 0.0328 0
211 212 412 0.0328 0
212 413 412 0.0328 0
212 213 414 0.0328 0
212 414 413 0.0328 0
213 214 414 0.0328 0
214 415 414 0.0328 0
214 215 416 0.0328 0
214 416 415 0.0328 0
215 216 416 0.0328 0
216 417 416 0.0328 0
216 217 418 0.0328 0
216 418 417 0.0328 0
217 218 418 0.0328 0
218 419 418 0.0328 0
218 219 420 0.0328 0
218 420 419 0.0328 0
219 220 420 0.0328 0
220 421 420 0.0328 0
220 221 422 0.0328 0
220 422 421 0.0328 0
221 222 422 0.0328 0
222 423 422 0.0328 0
222 223 424 0.0328 0
222 424 423 0.0328 0
223 224 424 0.0328 0
224 425 424 0.0328 0
224 225 426 0.0328 0
224 426 425 0.0328 0
225 226 426 0.0328 0
226 427 426 0.0328 0
226 227 428 0.0328 0
226 428 427 0.0328 0
227 228 428 0.0328 0
228 429 428 0.0328 0
228 229 430 0.0328 0
228 430 429 0.0328 0
229 230 430 0.0328 0
230 431 430 0.0328 0
230 231 432 0.0328 0
230 432 431 0.0328 0
231 232 432 0.0328 0
232 433 432 0.0328 0
232 233 434 0.0328 0
232 434 433 0.0328 0
233 234 434 0.0328 0
234 435 434 0.0328 0
234 235 436 0.0328 0
234 436 435 0.0328 0
235 236 436 0.0328 0
236 437 436 0.0328 0
236 237 438 0.0328 0
236 438 437 0.0328 0
237 238 438 0.0328 0
238 439 438 0.0328 0
238 239 440 0.0328 0
238 440 439 0.0328 0
239 240 440 0.0328 0
240 441 440 0.0328 0
240 241 442 0.0328 0
240 442 441 0.0328 0
241 242 442 0.0328 0
242 443 442 0.0328 0
242 243 444 0.0328 0
242 444 443 0.0328 0
243 244 444 0.0328 0
244 445 444 0.0328 0
244 245 446 0.0328 0
244 446 445 0.0328 0
245 246 446 0.0328 0
246 447 446 0.0328 0
246 247 448 0.0328 0
246 448 447 0.0328 0
247 248 448 0.0328 0
248 449 448 0.0328 0
248 249 450 0.0328 0
248 450 449 0.0328 0
249 250 450 0.0328 0
250 451 450 0.0328 0
250 251 452 0.0328 0
250 452 451 0.0328 0
251 252 452 0.0328 0
252 453 452 0.0328 0
252 253 454 0.0328 0
252 454 453 0.0328 0
253 254 454 0.0328 0
254 455 454 0.0328 0
254 255 456 0.0328 0
254 456 455 0.0328 0
255 256 456 0.0328 0
256 457 456 0.0328 0
256 257 458 0.0328 0
256 458 457 0.0328 0
257 258 458 0.0328 0
258 459 458 0.0328 0
258 259 460 0.0328 0
258 460 459 0.0328 0
259 260 460 0.0328 0
260 461 460 0.0328 0
260 261 462 0.0328 0
260 462 461 0.0328 0
261 262 462 0.0328 0
262 463 462 0.0328 0
262 263 464 0.0328 0
262 464 463 0.0328 0
263 264 464 0.0328 0
264 465 464 0.0328 0
264 265 466 0.0328 0
264 466 465 0.0328 0
265 266 466 0.0328 0
266 467 466 0.0328 0
266 267 468 0.0328 0
266 468 467 0.0328 0
267 268 468 0.0328 0
268 469 468 0.0328 0
268 269 470 0.0328 0
268 470 469 0.0328 0
269 270 470 0.0328 0
270 471 470 0.0328 0
270 271 472 0.0328 0
270 472 471 0.0328 0
271 272 472 0.0328 0
272 473 472 0.0328 0
272 273 474 0.0328 0
272 474 473 0.0328 0
273 274 474 0.0328 0
274 475 474 0.0328 0
274 275 476 0.0328 0
274 476 475 0.0328 0
275 276 476 0.0328 0
276 477 476 0.0328 0
276 277 478 0.0328 0
276 478 477 0.0328 0
277 278 478 0.0328 0
278 479 478 0.0328 0
278 279 480 0.0328 0
278 480 479 0.0328 0
279 280 480 0.0328 0
280 481 480 0.0328 0
280 281 482 0.0328 0
280 482 481 0.0328 0
281 282 482 0.0328 0
282 483 482 0.0328 0
282 283 484 0.0328 0
282 484 483 0.0328 0
283 284 484 0.0328 0
284 485 484 0.0328 0
284 285 486 0.0328 0
284 486 485 0.0328 0
285 286 486 0.0328 0
286 487 486 0.0328 0
286 287 488 0.0328 0
286 488 487 0.0328 0
287 288 488 0.0328 0
288 489 488 0.0328 0
288 289 490 0.0328 0
288 490 489 0.0328 0
289 290 490 0.0328 0
290 491 490 0.0328 0
290 291 492 0.0328 0
290 492 491 0.0328 0
291 292 492 0.0328 0
292 493 492 0.0328 0
292 293 494 0.0328 0
292 494 493 0.0328 0
293 294 494 0.0328 0
294 495 494 0.0328 0
294 295 496 0.0328 0
294 496 495 0.0328 0
295 296 496 0.0328 0
296 497 496 0.0328 0
296 297 498 0.0328 0
296 498 497 0.0328 0
297 298 498 0.0328 0
298 499 498 0.0328 0
298 299 500 0.0328 0
298 500 499 0.0328 0
299 300 500 0.0328 0
300 501 500 0.0328 0
300 301 502 0.0328 0
300 502 501 0.0328 0
301 302 502 0.0328 0
302 503 502 0.0328 0
302 303 504 0.0328 0
302 504 503 0.0328 0
303 304 504 0.0328 0
304 505 504 0.0328 0
304 305 506 0.0328 0
304 506 505 0.0328 0
305 306 506 0.0328 0
306 507 506 0.0328 0
306 307 508 0.0328 0
306 508 507 0.0328 0
307 308 508 0.0328 0
308 509 508 0.0328 0
308 309 510 0.0328 0
308 510 509 0.0328 0
309 310 510 0.0328 0
310 511 510 0.0328 0
310 311 512 0.0328 0
310 512 511 0.0328 0
311 312 512 0.0328 0
312 513 512 0.0328 0
312 313 514 0.0328 0
312 514 513 0.0328 0
313 314 514 0.0328 0
314 515 514 0.0328 0
314 315 516 0.0328 0
314 516 515 0.0328 0
315 316 516 0.0328 0
316 517 516 0.0328 0
316 317 518 0.0328 0
316 518 517 0.0328 0
317 318 518 0.0328 0
318 519 518 0.0328 0
318 319 520 0.0328 0
318 520 519 0.0328 0
319 320 520 0.0328 0
320 521 520 0.0328 0
320 321 522 0.0328 0
320 522 521 0.0328 0
321 322 522 0.0328 0
322 523 522 0.0328 0
322 323 524 0.0328 0
322 524 523 0.0328 0
323 324 524 0.0328 0
324 525 524 0.0328 0
324 325 526 0.0328 0
324 526 525 0.0328 0
325 326 526 0.0328 0
326 527 526 0.0328 0
326 327 528 0.0328 0
326 528 527 0.0328 0
327 328 528 0.0328 0
328 529 528 0.0328 0
328 329 530 0.0328 0
328 530 529 0.0328 0
329 330 530 0.0328 0
330 531 530 0.0328 0
330 331 532 0.0328 0
330 532 531 0.0328 0
331 332 532 0.0328 0
332 533 532 0.0328 0
332 333 534 0.0328 0
332 534 533 0.0328 0
333 334 534 0.0328 0
334 535 534 0.0328 0
334 335 536 0.0328 0
334 536 535 0.0328 0
335 336 536 0.0328 0
336 537 536 0.0328 0
336 337 538 0.0328 0
336 538 537 0.0328 0
337 338 538 0.0328 0
338 539 538 0.0328 0
338 339 540 0.0328 0.00572081
338 540 539 0.0328 0.00300012
339 340 540 0.0328 0.0111822
340 541 540 0.0328 0.0139229
340 341 542 0.0328 0.022185
340 542 541 0.0328 0.0194243
341 342 542 0.0328 0.0277262
342 543 542 0.0328 0.0305068
342 343 544 0.0328 0.0388881
342 544 543 0.0328 0.0360877
343 344 544 0.0328 0.0445086
344 545 544 0.0328 0.0473287
344 345 546 0.0328 0.0558282
344 546 545 0.0328 0.0529885
345 346 546 0.0328 0.0615273
346 547 546 0.0328 0.0643866
346 347 548 0.0328 0.0730034
346 548 547 0.0328 0.0701246
347 348 548 0.0328 0.0787803
348 549 548 0.0328 0.0816785
348 349 550 0.0328 0.0904115
348 550 549 0.0328 0.087494
349 350 550 0.0328 0.0962655
350 551 550 0.0328 0.0992021
350 351 552 0.0328 0.10805
350 552 551 0.0328 0.105094
351 352 552 0.0328 0.11398
352 553 552 0.0328 0.116955
352 353 554 0.0328 0.125917
352 554 553 0.0328 0.122923
353 354 554 0.0328 0.131923
354 555 554 0.0328 0.134935
354 355 556 0.0328 0.144009
354 556 555 0.0328 0.140978
355 356 556 0.0328 0.15009
356 557 556 0.0328 0.153139
356 357 558 0.0328 0.162324
356 558 557 0.0328 0.159256
357 358 558 0.0328 0.168478
358 559 558 0.0328 0.171564
358 359 560 0.0328 0.180859
358 560 559 0.0328 0.177755
359 360 560 0.0328 0.187086
360 561 560 0.0328 0.190208
360 361 562 0.0328 0.199611
360 562 561 0.0328 0.196471
361 362 562 0.0328 0.205909
362 563 562 0.0328 0.209068
362 363 564 0.0328 0.218577
362 564 563 0.0328 0.215401
363 364 564 0.0328 0.224946
364 565 564 0.0328 0.228139
364 365 566 0.0328 0.237753
364 566 565 0.0328 0.234542
365 366 566 0.0328 0.244191
366 567 566 0.0328 0.247419
366 367 568 0.0328 0.257136
366 568 567 0.0328 0.253891
367 368 568 0.0328 0.263642
368 569 568 0.0328 0.266904
368 369 570 0.0328 0.276722
368 570 569 0.0328 0.273444
369 370 570 0.0328 0.283295
370 571 570 0.0328 0.28659
370 371 572 0.0328 0.296508
370 572 571 0.0328 0.293196
371 372 572 0.0328 0.303146
372 573 572 0.0328 0.306474
372 373 574 0.0328 0.316489
372 574 573 0.0328 0.313145
373 374 574 0.0328 0.323192
374 575 574 0.0328 0.326552
374 375 576 0.0328 0.336662
374 576 575 0.0328 0.333286
375 376 576 0.0328 0.343428
376 577 576 0.0328 0.346818
376 377 578 0.0328 0.357022
376 578 577 0.0328 0.353615
377 378 578 0.0328 0.363849
378 579 578 0.0328 0.36727
378 379 580 0.0328 0.377565
378 580 579 0.0328 0.374128
379 380 580 0.0328 0.384452
380 581 580 0.0328 0.387903
380 381 582 0.0328 0.398286
380 582 581 0.0328 0.39482
381 382 582 0.0328 0.405232
382 583 582 0.0328 0.408712
382 383 584 0.0328 0.419181
382 584 583 0.0328 0.415687
383 384 584 0.0328 0.426184
384 585 584 0.0328 0.429692
384 385 586 0.0328 0.440245
384 586 585 0.0328 0.436723
385 386 586 0.0328 0.447304
386 587 586 0.0328 0.450839
386 387 588 0.0328 0.461474
386 588 587 0.0328 0.457925
387 388 588 0.0328 0.468586
388 589 588 0.0328 0.472148
388 389 590 0.0328 0.482861
388 590 589 0.0328 0.479286
389 390 590 0.0328 0.490025
390 591 590 0.0328 0.493613
390 391 592 0.0328 0.504403
390 592 591 0.0328 0.500802
391 392 592 0.0328 0.511617
392 593 592 0.0328 0.51523
392 393 594 0.0328 0.526093
392 594 593 0.0328 0.522468
393 394 594 0.0328 0.533355
394 595 594 0.0328 0.536992
394 395 596 0.0328 0.547926
394 596 595 0.0328 0.544278
395 396 596 0.0328 0.555235
396 597 596 0.0328 0.558895
396 397 598 0.0328 0.569898
396 598 597 0.0328 0.566226
397 398 598 0.0328 0.577251
398 599 598 0.0328 0.580933
398 399 600 0.0328 0.592001
398 600 599 0.0328 0.588308
399 400 600 0.0328 0.599397
400 601 600 0.0328 0.6031
400 401 602 0.0328 0.61423
400 602 601 0.0328 0.610517
402 403 604 0.0328 0
402 604 603 0.0328 0
403 404 604 0.0328 0
404 605 604 0.0328 0
404 405 606 0.0328 0
404 606 605 0.0328 0
405 406 606 0.0328 0
406 607 606 0.0328 0
406 407 608 0.0328 0
406 608 607 0.0328 0
407 408 608 0.0328 0
408 609 608 0.0328 0
408 409 610 0.0328 0
408 610 609 0.0328 0
409 410 610 0.0328 0
410 611 610 0.0328 0
410 411 612 0.0328 0
410 612 611 0.0328 0
411 412 612 0.0328 0
412 613 612 0.0328 0
412 413 614 0.0328 0
412 614 613 0.0328 0
413 414 614 0.0328 0
414 615 614 0.0328 0
414 415 616 0.0328 0
414 616 615 0.0328 0
415 416 616 0.0328 0
416 617 616 0.0328 0
416 417 618 0.0328 0
416 618 617 0.0328 0
417 418 618 0.0328 0
418 619 618 0.0328 0
418 419 620 0.0328 0
418 620 619 0.0328 0
419 420 620 0.0328 0
420 621 620 0.0328 0
420 421 622 0.0328 0
420 622 621 0.0328 0
421 422 622 0.0328 0
422 623 622 0.0328 0
422 423 624 0.0328 0
422 624 623 0.0328 0
423 424 624 0.0328 0
424 625 624 0.0328 0
424 425 626 0.0328 0
424 626 625 0.0328 0
425 426 626 0.0328 0
426 627 626 0.0328 0
426 427 628 0.0328 0
426 628 627 0.0328 0
427 428 628 0.0328 0
428 629 628 0.0328 0
428 429 630 0.0328 0
428 630 629 0.0328 0
429 430 630 0.0328 0
430 631 630 0.0328 0
430 431 632 0.0328 0
430 632 631 0.0328 0
431 432 632 0.0328 0
432 633 632 0.0328 0
432 433 634 0.0328 0
432 634 633 0.0328 0
433 434 634 0.0328 0
434 635 634 0.0328 0
434 435 636 0.0328 0
434 636 635 0.0328 0
435 436 636 0.0328 0
436 637 636 0.0328 0
436 437 638 0.0328 0
436 638 637 0.0328 0
437 438 638 0.0328 0
438 639 638 0.0328 0
438 439 640 0.0328 0
438 640 639 0.0328 0
439 440 640 0.0328 0
440 641 640 0.0328 0
440 441 642 0.0328 0
440 642 641 0.0328 0
441 442 642 0.0328 0
442 643 642 0.0328 0
442 443 644 0.0328 0
442 644 643 0.0328 0
443 444 644 0.0328 0
444 645 644 0.0328 0
444 445 646 0.0328 0
444 646 645 0.0328 0
445 446 646 0.0328 0
446 647 646 0.0328 0
446 447 648 0.0328 0
446 648 647 0.0328 0
447 448 648 0.0328 0
448 649 648 0.0328 0
448 449 650 0.0328 0
448 650 649 0.0328 0
449 450 650 0.0328 0
450 651 650 0.0328 0
450 451 652 0.0328 0
450 652 651 0.0328 0
451 452 652 0.0328 0
452 653 652 0.0328 0
452 453 654 0.0328 0
452 654 653 0.0328 0
453 454 654 0.0328 0
454 655 654 0.0328 0
454 455 656 0.0328 0
454 656 655 0.0328 0
455 456 656 0.0328 0
456 657 656 0.0328 0
456 457 658 0.0328 0
456 658 657 0.0328 0
457 458 658 0.0328 0
458 659 658 0.0328 0
458 459 660 0.0328 0
458 660 659 0.0328 0
459 460 660 0.0328 0
460 661 660 0.0328 0
460 461 662 0.0328 0
460 662 661 0.0328 0
461 462 662 0.0328 0
462 663 662 0.0328 0
462 463 664 0.0328 0
462 664 663 0.0328 0
463 464 664 0.0328 0
464 665 664 0.0328 0
464 465 666 0.0328 0
464 666 665 0.0328 0
465 466 666 0.0328 0
466 667 666 0.0328 0
466 467 668 0.0328 0
466 668 667 0.0328 0
467 468 668 0.0328 0
468 669 668 0.0328 0
468 469 670 0.0328 0
468 670 669 0.0328 0
469 470 670 0.0328 0
470 671 670 0.0328 0
470 471 672 0.0328 0
470 672 671 0.0328 0
471 472 672 0.0328 0
472 673 672 0.0328 0
472 473 674 0.0328 0
472 674 673 0.0328 0
473 474 674 0.0328 0
474 675 674 0.0328 0
474 475 676 0.0328 0
474 676 675 0.0328 0
475 476 676 0.0328 0
476 677 676 0.0328 0
476 477 678 0.0328 0
476 678 677 0.0328 0
477 478 678 0.0328 0
478 679 678 0.0328 0
478 479 680 0.0328 0
478 680 679 0.0328 0
479 480 680 0.0328 0
480 681 680 0.0328 0
480 481 682 0.0328 0
480 682 681 0.0328 0
481 482 682 0.0328 0
482 683 682 0.0328 0
482 483 684 0.0328 0
482 684 683 0.0328 0
483 484 684 0.0328 0
484 685 684 0.0328 0
484 485 686 0.0328 0
484 686 685 0.0328 0
485 486 686 0.0328 0
486 687 686 0.0328 0
486 487 688 0.0328 0
486 688 687 0.0328 0
487 488 688 0.0328 0
488 689 688 0.0328 0
488 489 690 0.0328 0
488 690 689 0.0328 0
489 490 690 0.0328 0
490 691 690 0.0328 0
490 491 692 0.0328 0
490 692 691 0.0328 0
491 492 692 0.0328 0
492 693 692 0.0328 0
492 493 694 0.0328 0
492 694 693 0.0328 0
493 494 694 0.0328 0
494 695 694 0.0328 0
494 495 696 0.0328 0
494 696 695 0.0328 0
495 496 696 0.0328 0
496 697 696 0.0328 0
496 497 698 0.0328 0
496 698 697 0.0328 0
497 498 698 0.0328 0
498 699 698 0.0328 0
498 499 700 0.0328 0
498 700 699 0.0328 0
499 500 700 0.0328 0
500 701 700 0.0328 0
500 501 702 0.0328 0
500 702 701 0.0328 0
501 502 702 0.0328 0
502 703 702 0.0328 0
502 503 704 0.0328 0
502 704 703 0.0328 0
503 504 704 0.0328 0
504 705 704 0.0328 0
504 505 706 0.0328 0
504 706 705 0.0328 0
505 506 706 0.0328 0
506 707 706 0.0328 0
506 507 708 0.0328 0
506 708 707 0.0328 0
507 508 708 0.0328 0
508 709 708 0.0328 0
508 509 710 0.0328 0
508 710 709 0.0328 0
509 510 710 0.0328 0
510 711 710 0.0328 0
510 511 712 0.0328 0
510 712 711 0.0328 0
511 512 712 0.0328 0
512 713 712 0.0328 0
512 513 714 0.0328 0
512 714 713 0.0328 0
513 514 714 0.0328 0
514 715 714 0.0328 0
514 515 716 0.0328 0
514 716 715 0.0328 0
515 516 716 0.0328 0
516 717 716 0.0328 0
516 517 718 0.0328 0
516 718 717 0.0328 0
517 518 718 0.0328 0
518 719 718 0.0328 0
518 519 720 0.0328 0
518 720 719 0.0328 0
519 520 720 0.0328 0
520 721 720 0.0328 0
520 521 722 0.0328 0
520 722 721 0.0328 0
521 522 722 0.0328 0
522 723 722 0.0328 0
522 523 724 0.0328 0
522 724 723 0.0328 0
523 524 724 0.0328 0
524 725 724 0.0328 0
524 525 726 0.0328 0
524 726 725 0.0328 0
525 526 726 0.0328 0
526 727 726 0.0328 0
526 527 728 0.0328 0
526 728 727 0.0328 0
527 528 728 0.0328 0
528 729 728 0.0328 0
528 529 730 0.0328 0
528 730 729 0.0328 0
529 530 730 0.0328 0
530 731 730 0.0328 0
530 531 732 0.0328 0
530 732 731 0.0328 0
531 532 732 0.0328 0
532 733 732 0.0328 0
532 533 734 0.0328 0
532 734 733 0.0328 0
533 534 734 0.0328 0
534 735 734 0.0328 0
534 535 736 0.0328 0
534 736 735 0.0328 0
535 536 736 0.0328 0
536 737 736 0.0328 0
536 537 738 0.0328 0
536 738 737 0.0328 0
537 538 738 0.0328 0
538 739 738 0.0328 0
538 539 740 0.0328 0
538 740 739 0.0328 0
539 540 740 0.0328 0.00300012
540 741 740 0.0328 0.00572081
540 541 742 0.0328 0.0139229
540 742 741 0.0328 0.0111822
541 542 742 0.0328 0.0194243
542 743 742 0.0328 0.022185
542 543 744 0.0328 0.0305068
542 744 743 0.0328 0.0277262
543 544 744 0.0328 0.0360877
544 745 744 0.0328 0.0388881
544 545 746 0.0328 0.0473287
544 746 745 0.0328 0.0445086
545 546 746 0.0328 0.0529885
546 747 746 0.0328 0.0558282
546 547 748 0.0328 0.0643866
546 748 747 0.0328 0.0615273
547 548 748 0.0328 0.0701246
548 749 748 0.0328 0.0730034
548 549 750 0.0328 0.0816785
548 750 749 0.0328 0.0787803
549 550 750 0.0328 0.087494
550 751 750 0.0328 0.0904115
550 551 752 0.0328 0.0992021
550 752 751 0.0328 0.0962655
551 552 752 0.0328 0.105094
552 753 752 0.0328 0.10805
552 553 754 0.0328 0.116955
552 754 753 0.0328 0.11398
553 554 754 0.0328 0.122923
554 755 754 0.0328 0.125917
554 555 756 0.0328 0.134935
554 756 755 0.0328 0.131923
555 556 756 0.0328 0.140978
556 757 756 0.0328 0.144009
556 557 758 0.0328 0.153139
556 758 757 0.0328 0.15009
557 558 758 0.0328 0.159256
558 759 758 0.0328 0.162324
558 559 760 0.0328 0.171564
558 760 759 0.0328 0.168478
559 560 760 0.0328 0.177755
560 761 760 0.0328 0.180859
560 561 762 0.0328 0.190208
560 762 761 0.0328 0.187086
561 562 762 0.0328 0.196471
562 763 762 0.0328 0.199611
562 563 764 0.0328 0.209068
562 764 763 0.0328 0.205909
563 564 764 0.0328 0.215401
564 765 764 0.0328 0.218577
564 565 766 0.0328 0.228139
564 766 765 0.0328 0.224946
565 566 766 0.0328 0.234542
566 767 766 0.0328 0.237753
566 567 768 0.0328 0.247419
566 768 767 0.0328 0.244191
567 568 768 0.0328 0.253891
568 769 768 0.0328 0.257136
568 569 770 0.0328 0.266904
568 770 769 0.0328 0.263642
569 570 770 0.0328 0.273444
570 771 770 0.0328 0.276722
570 571 772 0.0328 0.28659
570 772 771 0.0328 0.283295
571 572 772 0.0328 0.293196
572 773 772 0.0328 0.296508
572 573 774 0.0328 0.306474
572 774 773 0.0328 0.303146
573 574 774 0.0328 0.313145
574 775 774 0.0328 0.316489
574 575 776 0.0328 0.326552
574 776 775 0.0328 0.323192
575 576 776 0.0328 0.333286
576 777 776 0.0328 0.336662
576 577 778 0.0328 0.346818
576 778 777 0.0328 0.343428
577 578 778 0.0328 0.353615
578 779 778 0.0328 0.357022
578 579 780 0.0328 0.36727
578 780 779 0.0328 0.363849
579 580 780 0.0328 0.374128
580 781 780 0.0328 0.377565
580 581 782 0.0328 0.387903
580 782 781 0.0328 0.384452
581 582 782 0.0328 0.39482
582 783 782 0.0328 0.398286
582 583 784 0.0328 0.408712
582 784 783 0.0328 0.405232
583 584 784 0.0328 0.415687
584 785 784 0.0328 0.419181
584 585 786 0.0328 0.429692
584 786 785 0.0328 0.426184
585 586 786 0.0328 0.436723
586 787 786 0.0328 0.440245
586 587 788 0.0328 0.450839
586 788 787 0.0328 0.447304
587 588 788 0.0328 0.457925
588 789 788 0.0328 0.461474
588 589 790 0.0328 0.472148
588 790 789 0.0328 0.468586
589 590 790 0.0328 0.479286
590 791 790 0.0328 0.482861
590 591 792 0.0328 0.493613
590 792 791 0.0328 0.490025
591 592 792 0.0328 0.500802
592 793 792 0.0328 0.504403
592 593 794 0.0328 0.51523
592 794 793 0.0328 0.511617
593 594 794 0.0328 0.522468
594 795 794 0.0328 0.526093
594 595 796 0.0328 0.536992
594 796 795 0.0328 0.533355
595 596 796 0.0328 0.544278
596 797 796 0.0328 0.547926
596 597 798 0.0328 0.558895
596 798 797 0.0328 0.555235
597 598 798 0.0328 0.566226
598 799 798 0.0328 0.569898
598 599 800 0.0328 0.580933
598 800 799 0.0328 0.577251
599 600 800 0.0328 0.588308
600 801 800 0.0328 0.592001
600 601 802 0.0328 0.6031
600 802 801 0.0328 0.599397
601 602 802 0.0328 0.610517
602 803 802 0.0328 0.61423
603 604 804 0.0328 0
604 805 804 0.0328 0
604 605 806 0.0328 0
604 806 805 0.0328 0
605 606 806 0.0328 0
606 807 806 0.0328 0
606 607 808 0.0328 0
606 808 807 0.0328 0
607 608 808 0.0328 0
608 809 808 0.0328 0
608 609 810 0.0328 0
608 810 809 0.0328 0
609 610 810 0.0328 0
610 811 810 0.0328 0
610 611 812 0.0328 0
610 812 811 0.0328 0
611 612 812 0.0328 0
612 813 812 0.0328 0
612 613 814 0.0328 0
612 814 813 0.0328 0
613 614 814 0.0328 0
614 815 814 0.0328 0
614 615 816 0.0328 0
614 816 815 0.0328 0
615 616 816 0.0328 0
616 817 816 0.0328 0
616 617 818 0.0328 0
616 818 817 0.0328 0
617 618 818 0.0328 0
618 819 818 0.0328 0
618 619 820 0.0328 0
618 820 819 0.0328 0
619 620 820 0.0328 0
620 821 820 0.0328 0
620 621 822 0.0328 0
620 822 821 0.0328 0
621 622 822 0.0328 0
622 823 822 0.0328 0
622 623 824 0.0328 0
622 824 823 0.0328 0
623 624 824 0.0328 0
624 825 824 0.0328 0
624 625 826 0.0328 0
624 826 825 0.0328 0
625 626 826 0.0328 0
626 827 826 0.0328 0
626 627 828 0.0328 0
626 828 827 0.0328 0
627 628 828 0.0328 0
628 829 828 0.0328 0
628 629 830 0.0328 0
628 830 829 0.0328 0
629 630 830 0.0328 0
630 831 830 0.0328 0
630 631 832 0.0328 0
630 832 831 0.0328 0
631 632 832 0.0328 0
632 833 832 0.0328 0
632 633 834 0.0328 0
632 834 833 0.0328 0
633 634 834 0.0328 0
634 835 834 0.0328 0
634 635 836 0.0328 0
634 836 835 0.0328 0
635 636 836 0.0328 0
636 837 836 0.0328 0
636 637 838 0.0328 0
636 838 837 0.0328 0
637 638 838 0.0328 0
638 839 838 0.0328 0
638 639 840 0.0328 0
638 840 839 0.0328 0
639 640 840 0.0328 0
640 841 840 0.0328 0
640 641 842 0.0328 0
640 842 841 0.0328 0
641 642 842 0.0328 0
642 843 842 0.0328 0
642 643 844 0.0328 0
642 844 843 0.0328 0
643 644 844 0.0328 0
644 845 844 0.0328 0
644 645 846 0.0328 0
644 846 845 0.0328 0
645 646 846 0.0328 0
646 847 846 0.0328 0
646 647 848 0.0328 0
646 848 847 0.0328 0
647 648 848 0.0328 0
648 849 848 0.0328 0
648 649 850 0.0328 0
648 850 849 0.0328 0
649 650 850 0.0328 0
650 851 850 0.0328 0
650 651 852 0.0328 0
650 852 851 0.0328 0
651 652 852 0.0328 0
652 853 852 0.0328 0
652 653 854 0.0328 0
652 854 853 0.0328 0
653 654 854 0.0328 0
654 855 854 0.0328 0
654 655 856 0.0328 0
654 856 855 0.0328 0
655 656 856 0.0328 0
656 857 856 0.0328 0
656 657 858 0.0328 0
656 858 857 0.0328 0
657 658 858 0.0328 0
658 859 858 0.0328 0
658 659 860 0.0328 0
658 860 859 0.0328 0
659 660 860 0.0328 0
660 861 860 0.0328 0
660 661 862 0.0328 0
660 862 861 0.0328 0
661 662 862 0.0328 0
662 863 862 0.0328 0
662 663 864 0.0328 0
662 864 863 0.0328 0
663 664 864 0.0328 0
664 865 864 0.0328 0
664 665 866 0.0328 0
664 866 865 0.0328 0
665 666 866 0.0328 0
666 867 866 0.0328 0
666 667 868 0.0328 0
666 868 867 0.0328 0
667 668 868 0.0328 0
668 869 868 0.0328 0
668 669 870 0.0328 0
668 870 869 0.0328 0
669 670 870 0.0328 0
670 871 870 0.0328 0
670 671 872 0.0328 0
670 872 871 0.0328 0
671 672 872 0.0328 0
672 873 872 0.0328 0
672 673 874 0.0328 0
672 874 873 0.0328 0
673 674 874 0.0328 0
674 875 874 0.0328 0
674 675 876 0.0328 0
674 876 875 0.0328 0
675 676 876 0.0328 0
676 877 876 0.0328 0
676 677 878 0.0328 0
676 878 877 0.0328 0
677 678 878 0.0328 0
678 879 878 0.0328 0
678 679 880 0.0328 0
678 880 879 0.0328 0
679 680 880 0.0328 0
680 881 880 0.0328 0
680 681 882 0.0328 0
680 882 881 0.0328 0
681 682 882 0.0328 0
682 883 882 0.0328 0
682 683 884 0.0328 0
682 884 883 0.0328 0
683 684 884 0.0328 0
684 885 884 0.0328 0
684 685 886 0.0328 0
684 886 885 0.0328 0
685 686 886 0.0328 0
686 887 886 0.0328 0
686 687 888 0.0328 0
686 888 887 0.0328 0
687 688 888 0.0328 0
688 889 888 0.0328 0
688 689 890 0.0328 0
688 890 889 0.0328 0
689 690 890 0.0328 0
690 891 890 0.0328 0
690 691 892 0.0328 0
690 892 891 0.0328 0
691 692 892 0.0328 0
692 893 892 0.0328 0
692 693 894 0.0328 0
692 894 893 0.0328 0
693 694 894 0.0328 0
694 895 894 0.0328 0
694 695 896 0.0328 0
694 896 895 0.0328 0
695 696 896 0.0328 0
696 897 896 0.0328 0
696 697 898 0.0328 0
696 898 897 0.0328 0
697 698 898 0.0328 0
698 899 898 0.0328 0
698 699 900 0.0328 0
698 900 899 0.0328 0
699 700 900 0.0328 0
700 901 900 0.0328 0
700 701 902 0.0328 0
700 902 901 0.0328 0
701 702 902 0.0328 0
702 903 902 0.0328 0
702 703 904 0.0328 0
702 904 903 0.0328 0
703 704 904 0.0328 0
704 905 904 0.0328 0
704 705 906 0.0328 0
704 906 905 0.0328 0
705 706 906 0.0328 0
706 907 906 0.0328 0
706 707 908 0.0328 0
706 908 907 0.0328 0
707 708 908 0.0328 0
708 909 908 0.0328 0
708 709 910 0.0328 0
708 910 909 0.0328 0
709 710 910 0.0328 0
710 911 910 0.0328 0
710 711 912 0.0328 0
710 912 911 0.0328 0
711 712 912 0.0328 0
712 913 912 0.0328 0
712 713 914 0.0328 0
712 914 913 0.0328 0
713 714 914 0.0328 0
714 915 914 0.0328 0
714 715 916 0.0328 0
714 916 915 0.0328 0
715 716 916 0.0328 0
716 917 916 0.0328 0
716 717 918 0.0328 0
716 918 917 0.0328 0
717 718 918 0.0328 0
718 919 918 0.0328 0
718 719 920 0.0328 0
718 920 919 0.0328 0
719 720 920 0.0328 0
720 921 920 0.0328 0
720 721 922 0.0328 0
720 922 921 0.0328 0
721 722 922 0.0328 0
722 923 922 0.0328 0
722 723 924 0.0328 0
722 924 923 0.0328 0
723 724 924 0.0328 0
724 925 924 0.0328 0
724 725 926 0.0328 0
724 926 925 0.0328 0
725 726 926 0.0328 0
726 927 926 0.0328 0
726 727 928 0.0328 0
726 928 927 0.0328 0
727 728 928 0.0328 0
728 929 928 0.0328 0
728 729 930 0.0328 0
728 930 929 0.0328 0
729 730 930 0.0328 0
730 931 930 0.0328 0
730 731 932 0.0328 0
730 932 931 0.0328 0
731 732 932 0.0328 0
732 933 932 0.0328 0
732 733 934 0.0328 0
732 934 933 0.0328 0
733 734 934 0.0328 0
734 935 934 0.0328 0
734 735 936 0.0328 0
734 936 935 0.0328 0
735 736 936 0.0328 0
736 937 936 0.0328 0
736 737 938 0.0328 0
736 938 937 0.0328 0
737 738 938 0.0328 0
738 939 938 0.0328 0
738 739 940 0.0328 0
738 940 939 0.0328 0
739 740 940 0.0328 0
740 941 940 0.0328 0
740 741 942 0.0328 0.00572081
740 942 941 0.0328 0.00300012
741 742 942 0.0328 0.0111822
742 943 942 0.0328 0.0139229
742 743 944 0.0328 0.022185
742 944 943 0.0328 0.0194243
743 744 944 0.0328 0.0277262
744 945 944 0.0328 0.0305068
744 745 946 0.0328 0.0388881
744 946 945 0.0328 0.0360877
745 746 946 0.0328 0.0445086
746 947 946 0.0328 0.0473287
746 747 948 0.0328 0.0558282
746 948 947 0.0328 0.0529885
747 748 948 0.0328 0.0615273
748 949 948 0.0328 0.0643866
748 749 950 0.0328 0.0730034
748 950 949 0.0328 0.0701246
749 750 950 0.0328 0.0787803
750 951 950 0.0328 0.0816785
750 751 952 0.0328 0.0904115
750 952 951 0.0328 0.087494
751 752 952 0.0328 0.0962655
752 953 952 0.0328 0.0992021
752 753 954 0.0328 0.10805
752 954 953 0.0328 0.105094
753 754 954 0.0328 0.11398
754 955 954 0.0328 0.116955
754 755 956 0.0328 0.125917
754 956 955 0.0328 0.122923
755 756 956 0.0328 0.131923
756 957 956 0.0328 0.134935
756 757 958 0.0328 0.144009
756 958 957 0.0328 0.140978
757 758 958 0.0328 0.15009
758 959 958 0.0328 0.153139
758 759 960 0.0328 0.162324
758 960 959 0.0328 0.159256
759 760 960 0.0328 0.168478
760 961 960 0.0328 0.171564
760 761 962 0.0328 0.180859
760 962 961 0.0328 0.177755
761 762 962 0.0328 0.187086
762 963 962 0.0328 0.190208
762 763 964 0.0328 0.199611
762 964 963 0.0328 0.196471
763 764 964 0.0328 0.205909
764 965 964 0.0328 0.209068
764 765 966 0.0328 0.218577
764 966 965 0.0328 0.215401
765 766 966 0.0328 0.224946
766 967 966 0.0328 0.228139
766 767 968 0.0328 0.237753
766 968 967 0.0328 0.234542
767 768 968 0.0328 0.244191
768 969 968 0.0328 0.247419
768 769 970 0.0328 0.257136
768 970 969 0.0328 0.253891
769 770 970 0.0328 0.263642
770 971 970 0.0328 0.266904
770 771 972 0.0328 0.276722
770 972 971 0.0328 0.273444
771 772 972 0.0328 0.283295
772 973 972 0.0328 0.28659
772 773 974 0.0328 0.296508
772 974 973 0.0328 0.293196
773 774 974 0.0328 0.303146
774 975 974 0.0328 0.306474
774 775 976 0.0328 0.316489
774 976 975 0.0328 0.313145
775 776 976 0.0328 0.323192
776 977 976 0.0328 0.326552
776 777 978 0.0328 0.336662
776 978 977 0.0328 0.333286
777 778 978 0.0328 0.343428
778 979 978 0.0328 0.346818
778 779 980 0.0328 0.357022
778 980 979 0.0328 0.353615
779 780 980 0.0328 0.363849
780 981 980 0.0328 0.36727
780 781 982 0.0328 0.377565
780 982 981 0.0328 0.374128
781 782 982 0.0328 0.384452
782 983 982 0.0328 0.387903
782 783 984 0.0328 0.398286
782 984 983 0.0328 0.39482
783 784 984 0.0328 0.405232
784 985 984 0.0328 0.408712
784 785 986 0.0328 0.419181
784 986 985 0.0328 0.415687
785 786 986 0.0328 0.426184
786 987 986 0.0328 0.429692
786 787 988 0.0328 0.440245
786 988 987 0.0328 0.436723
787 788 988 0.0328 0.447304
788 989 988 0.0328 0.450839
788 789 990 0.0328 0.461474
788 990 989 0.0328 0.457925
789 790 990 0.0328 0.468586
790 991 990 0.0328 0.472148
790 791 992 0.0328 0.482861
790 992 991 0.0328 0.479286
791 792 992 0.0328 0.490025
792 993 992 0.0328 0.493613
792 793 994 0.0328 0.504403
792 994 993 0.0328 0.500802
793 794 994 0.0328 0.511617
794 995 994 0.0328 0.51523
794 795 996 0.0328 0.526093
794 996 995 0.0328 0.522468
795 796 996 0.0328 0.533355
796 997 996 0.0328 0.536992
796 797 998 0.0328 0.547926
796 998 997 0.0328 0.544278
797 798 998 0.0328 0.555235
798 999 998 0.0328 0.558895
798 799 1000 0.0328 0.569898
798 1000 999 0.0328 0.566226
799 800 1000 0.0328 0.577251
800 1001 1000 0.0328 0.580933
800 801 1002 0.0328 0.592001
800 1002 1001 0.0328 0.588308
801 802 1002 0.0328 0.599397
802 1003 1002 0.0328 0.6031
802 803 1004 0.0328 0.61423
802 1004 1003 0.0328 0.610517
804 805 1006 0.0328 0
804 1006 1005 0.0328 0
805 806 1006 0.0328 0
806 1007 1006 0.0328 0
806 807 1008 0.0328 0
806 1008 1007 0.0328 0
807 808 1008 0.0328 0
808 1009 1008 0.0328 0
808 809 1010 0.0328 0
808 1010 1009 0.0328 0
809 810 1010 0.0328 0
810 1011 1010 0.0328 0
810 811 1012 0.0328 0
810 1012 1011 0.0328 0
811 812 1012 0.0328 0
812 1013 1012 0.0328 0
812 813 1014 0.0328 0
812 1014 1013 0.0328 0
813 814 1014 0.0328 0
814 1015 1014 0.0328 0
814 815 1016 0.0328 0
814 1016 1015 0.0328 0
815 816 1016 0.0328 0
816 1017 1016 0.0328 0
816 817 1018 0.0328 0
816 1018 1017 0.0328 0
817 818 1018 0.0328 0
818 1019 1018 0.0328 0
818 819 1020 0.0328 0
818 1020 1019 0.0328 0
819 820 1020 0.0328 0
820 1021 1020 0.0328 0
820 821 1022 0.0328 0
820 1022 1021 0.0328 0
821 822 1022 0.0328 0
822 1023 1022 0.0328 0
822 823 1024 0.0328 0
822 1024 1023 0.0328 0
823 824 1024 0.0328 0
824 1025 1024 0.0328 0
824 825 1026 0.0328 0
824 1026 1025 0.0328 0
825 826 1026 0.0328 0
826 1027 1026 0.0328 0
826 827 1028 0.0328 0
826 1028 1027 0.0328 0
827 828 1028 0.0328 0
828 1029 1028 0.0328 0
828 829 1030 0.0328 0
828 1030 1029 0.0328 0
829 830 1030 0.0328 0
830 1031 1030 0.0328 0
830 831 1032 0.0328 0
830 1032 1031 0.0328 0
831 832 1032 0.0328 0
832 1033 1032 0.0328 0
832 833 1034 0.0328 0
832 1034 1033 0.0328 0
833 834 1034 0.0328 0
834 1035 1034 0.0328 0
834 835 1036 0.0328 0
834 1036 1035 0.0328 0
835 836 1036 0.0328 0
836 1037 1036 0.0328 0
836 837 1038 0.0328 0
836 1038 1037 0.0328 0
837 838 1038 0.0328 0
838 1039 1038 0.0328 0
838 839 1040 0.0328 0
838 1040 1039 0.0328 0
839 840 1040 0.0328 0
840 1041 1040 0.0328 0
840 841 1042 0.0328 0
840 1042 1041 0.0328 0
841 842 1042 0.0328 0
842 1043 1042 0.0328 0
842 843 1044 0.0328 0
842 1044 1043 0.0328 0
843 844 1044 0.0328 0
844 1045 1044 0.0328 0
844 845 1046 0.0328 0
844 1046 1045 0.0328 0
845 846 1046 0.0328 0
846 1047 1046 0.0328 0
846 847 1048 0.0328 0
846 1048 1047 0.0328 0
847 848 1048 0.0328 0
848 1049 1048 0.0328 0
848 849 1050 0.0328 0
848 1050 1049 0.0328 0
849 850 1050 0.0328 0
850 1051 1050 0.0328 0
850 851 1052 0.0328 0
850 1052 1051 0.0328 0
851 852 1052 0.0328 0
852 1053 1052 0.0328 0
852 853 1054 0.0328 0
852 1054 1053 0.0328 0
853 854 1054 0.0328 0
854 1055 1054 0.0328 0
854 855 1056 0.0328 0
854 1056 1055 0.0328 0
855 856 1056 0.0328 0
856 1057 1056 0.0328 0
856 857 1058 0.0328 0
856 1058 1057 0.0328 0
857 858 1058 0.0328 0
858 1059 1058 0.0328 0
858 859 1060 0.0328 0
858 1060 1059 0.0328 0
859 860 1060 0.0328 0
860 1061 1060 0.0328 0
860 861 1062 0.0328 0
860 1062 1061 0.0328 0
861 862 1062 0.0328 0
862 1063 1062 0.0328 0
862 863 1064 0.0328 0
862 1064 1063 0.0328 0
863 864 1064 0.0328 0
864 1065 1064 0.0328 0
864 865 1066 0.0328 0
864 1066 1065 0.0328 0
865 866 1066 0.0328 0
866 1067 1066 0.0328 0
866 867 1068 0.0328 0
866 1068 1067 0.0328 0
867 868 1068 0.0328 0
868 1069 1068 0.0328 0
868 869 1070 0.0328 0
868 1070 1069 0.0328 0
869 870 1070 0.0328 0
870 1071 1070 0.0328 0
870 871 1072 0.0328 0
870 1072 1071 0.0328 0
871 872 1072 0.0328 0
872 1073 1072 0.0328 0
872 873 1074 0.0328 0
872 1074 1073 0.0328 0
873 874 1074 0.0328 0
874 1075 1074 0.0328 0
874 875 1076 0.0328 0
874 1076 1075 0.0328 0
875 876 1076 0.0328 0
876 1077 1076 0.0328 0
876 877 1078 0.0328 0
876 1078 1077 0.0328 0
877 878 1078 0.0328 0
878 1079 1078 0.0328 0
878 879 1080 0.0328 0
878 1080 1079 0.0328 0
879 880 1080 0.0328 0
880 1081 1080 0.0328 0
880 881 1082 0.0328 0
880 1082 1081 0.0328 0
881 882 1082 0.0328 0
882 1083 1082 0.0328 0
882 883 1084 0.0328 0
882 1084 1083 0.0328 0
883 884 1084 0.0328 0
884 1085 1084 0.0328 0
884 885 1086 0.0328 0
884 1086 1085 0.0328 0
885 886 1086 0.0328 0
886 1087 1086 0.0328 0
886 887 1088 0.0328 0
886 1088 1087 0.0328 0
887 888 1088 0.0328 0
888 1089 1088 0.0328 0
888 889 1090 0.0328 0
888 1090 1089 0.0328 0
889 890 1090 0.0328 0
890 1091 1090 0.0328 0
890 891 1092 0.0328 0
890 1092 1091 0.0328 0
891 892 1092 0.0328 0
892 1093 1092 0.0328 0
892 893 1094 0.0328 0
892 1094 1093 0.0328 0
893 894 1094 0.0328 0
894 1095 1094 0.0328 0
894 895 1096 0.0328 0
894 1096 1095 0.0328 0
895 896 1096 0.0328 0
896 1097 1096 0.0328 0
896 897 1098 0.0328 0
896 1098 1097 0.0328 0
897 898 1098 0.0328 0
898 1099 1098 0.0328 0
898 899 1100 0.0328 0
898 1100 1099 0.0328 0
899 900 1100 0.0328 0
900 1101 1100 0.0328 0
900 901 1102 0.0328 0
900 1102 1101 0.0328 0
901 902 1102 0.0328 0
902 1103 1102 0.0328 0
902 903 1104 0.0328 0
902 1104 1103 0.0328 0
903 904 1104 0.0328 0
904 1105 1104 0.0328 0
904 905 1106 0.0328 0
904 1106 1105 0.0328 0
905 906 1106 0.0328 0
906 1107 1106 0.0328 0
906 907 1108 0.0328 0
906 1108 1107 0.0328 0
907 908 1108 0.0328 0
908 1109 1108 0.0328 0
908 909 1110 0.0328 0
908 1110 1109 0.0328 0
909 910 1110 0.0328 0
910 1111 1110 0.0328 0
910 911 1112 0.0328 0
910 1112 1111 0.0328 0
911 912 1112 0.0328 0
912 1113 1112 0.0328 0
912 913 1114 0.0328 0
912 1114 1113 0.0328 0
913 914 1114 0.0328 0
914 1115 1114 0.0328 0
914 915 1116 0.0328 0
914 1116 1115 0.0328 0
915 916 1116 0.0328 0
916 1117 1116 0.0328 0
916 917 1118 0.0328 0
916 1118 1117 0.0328 0
917 918 1118 0.0328 0
918 1119 1118 0.0328 0
918 919 1120 0.0328 0
918 1120 1119 0.0328 0
919 920 1120 0.0328 0
920 1121 1120 0.0328 0
920 921 1122 0.0328 0
920 1122 1121 0.0328 0
921 922 1122 0.0328 0
922 1123 1122 0.0328 0
922 923 1124 0.0328 0
922 1124 1123 0.0328 0
923 924 1124 0.0328 0
924 1125 1124 0.0328 0
924 925 1126 0.0328 0
924 1126 1125 0.0328 0
925 926 1126 0.0328 0
926 1127 1126 0.0328 0
926 927 1128 0.0328 0
926 1128 1127 0.0328 0
927 928 1128 0.0328 0
928 1129 1128 0.0328 0
928 929 1130 0.0328 0
928 1130 1129 0.0328 0
929 930 1130 0.0328 0
930 1131 1130 0.0328 0
930 931 1132 0.0328 0
930 1132 1131 0.0328 0
931 932 1132 0.0328 0
932 1133 1132 0.0328 0
932 933 1134 0.0328 0
932 1134 1133 0.0328 0
933 934 1134 0.0328 0
934 1135 1134 0.0328 0
934 935 1136 0.0328 0
934 1136 1135 0.0328 0
935 936 1136 0.0328 0
936 1137 1136 0.0328 0
936 937 1138 0.0328 0
936 1138 1137 0.0328 0
937 938 1138 0.0328 0
938 1139 1138 0.0328 0
938 939 1140 0.0328 0
938 1140 1139 0.0328 0
939 940 1140 0.0328 0
940 1141 1140 0.0328 0
940 941 1142 0.0328 0
940 1142 1141 0.0328 0
941 942 1142 0.0328 0.00300012
942 1143 1142 0.0328 0.00572081
942 943 1144 0.0328 0.0139229
942 1144 1143 0.0328 0.0111822
943 944 1144 0.0328 0.0194243
944 1145 1144 0.0328 0.022185
944 945 1146 0.0328 0.0305068
944 1146 1145 0.0328 0.0277262
945 946 1146 0.0328 0.0360877
946 1147 1146 0.0328 0.0388881
946 947 1148 0.0328 0.0473287
946 1148 1147 0.0328 0.0445086
947 948 1148 0.0328 0.0529885
948 1149 1148 0.0328 0.0558282
948 949 1150 0.0328 0.0643866
948 1150 1149 0.0328 0.0615273
949 950 1150 0.0328 0.0701246
950 1151 1150 0.0328 0.0730034
950 951 1152 0.0328 0.0816785
950 1152 1151 0.0328 0.0787803
951 952 1152 0.0328 0.087494
952 1153 1152 0.0328 0.0904115
952 953 1154 0.0328 0.0992021
952 1154 1153 0.0328 0.0962655
953 954 1154 0.0328 0.105094
954 1155 1154 0.0328 0.10805
954 955 1156 0.0328 0.116955
954 1156 1155 0.0328 0.11398
955 956 1156 0.0328 0.122923
956 1157 1156 0.0328 0.125917
956 957 1158 0.0328 0.134935
956 1158 1157 0.0328 0.131923
957 958 1158 0.0328 0.140978
958 1159 1158 0.0328 0.144009
958 959 1160 0.0328 0.153139
958 1160 1159 0.0328 0.15009
959 960 1160 0.0328 0.159256
960 1161 1160 0.0328 0.162324
960 961 1162 0.0328 0.171564
960 1162 1161 0.0328 0.168478
961 962 1162 0.0328 0.177755
962 1163 1162 0.0328 0.180859
962 963 1164 0.0328 0.190208
962 1164 1163 0.0328 0.187086
963 964 1164 0.0328 0.196471
964 1165 1164 0.0328 0.199611
964 965 1166 0.0328 0.209068
964 1166 1165 0.0328 0.205909
965 966 1166 0.0328 0.215401
966 1167 1166 0.0328 0.218577
966 967 1168 0.0328 0.228139
966 1168 1167 0.0328 0.224946
967 968 1168 0.0328 0.234542
968 1169 1168 0.0328 0.237753
968 969 1170 0.0328 0.247419
968 1170 1169 0.0328 0.244191
969 970 1170 0.0328 0.253891
970 1171 1170 0.0328 0.257136
970 971 1172 0.0328 0.266904
970 1172 1171 0.0328 0.263642
971 972 1172 0.0328 0.273444
972 1173 1172 0.0328 0.276722
972 973 1174 0.0328 0.28659
972 1174 1173 0.0328 0.283295
973 974 1174 0.0328 0.293196
974 1175 1174 0.0328 0.296508
974 975 1176 0.0328 0.306474
974 1176 1175 0.0328 0.303146
975 976 1176 0.0328 0.313145
976 1177 1176 0.0328 0.316489
976 977 1178 0.0328 0.326552
976 1178 1177 0.0328 0.323192
977 978 1178 0.0328 0.333286
978 1179 1178 0.0328 0.336662
978 979 1180 0.0328 0.346818
978 1180 1179 0.0328 0.343428
979 980 1180 0.0328 0.353615
980 1181 1180 0.0328 0.357022
980 981 1182 0.0328 0.36727
980 1182 1181 0.0328 0.363849
981 982 1182 0.0328 0.374128
982 1183 1182 0.0328 0.377565
982 983 1184 0.0328 0.387903
982 1184 1183 0.0328 0.384452
983 984 1184 0.0328 0.39482
984 1185 1184 0.0328 0.398286
984 985 1186 0.0328 0.408712
984 1186 1185 0.0328 0.405232
985 986 1186 0.0328 0.415687
986 1187 1186 0.0328 0.419181
986 987 1188 0.0328 0.429692
986 1188 1187 0.0328 0.426184
987 988 1188 0.0328 0.436723
988 1189 1188 0.0328 0.440245
988 989 1190 0.0328 0.450839
988 1190 1189 0.0328 0.447304
989 990 1190 0.0328 0.457925
990 1191 1190 0.0328 0.461474
990 991 1192 0.0328 0.472148
990 1192 1191 0.0328 0.468586
991 992 1192 0.0328 0.479286
992 1193 1192 0.0328 0.482861
992 993 1194 0.0328 0.493613
992 1194 1193 0.0328 0.490025
993 994 1194 0.0328 0.500802
994 1195 1194 0.0328 0.504403
994 995 1196 0.0328 0.51523
994 1196 1195 0.0328 0.511617
995 996 1196 0.0328 0.522468
996 1197 1196 0.0328 0.526093
996 997 1198 0.0328 0.536992
996 1198 1197 0.0328 0.533355
997 998 1198 0.0328 0.544278
998 1199 1198 0.0328 0.547926
998 999 1200 0.0328 0.558895
998 1200 1199 0.0328 0.555235
999 1000 1200 0.0328 0.566226
1000 1201 1200 0.0328 0.569898
1000 1001 1202 0.0328 0.580933
1000 1202 1201 0.0328 0.577251
1001 1002 1202 0.0328 0.588308
1002 1203 1202 0.0328 0.592001
1002 1003 1204 0.0328 0.6031
1002 1204 1203 0.0328 0.599397
1003 1004 1204 0.0328 0.610517
1004 1205 1204 0.0328 0.61423
1005 1006 1206 0.0328 0
1006 1207 1206 0.0328 0
1006 1007 1208 0.0328 0
1006 1208 1207 0.0328 0
1007 1008 1208 0.0328 0
1008 1209 1208 0.0328 0
1008 1009 1210 0.0328 0
1008 1210 1209 0.0328 0
1009 1010 1210 0.0328 0
1010 1211 1210 0.0328 0
1010 1011 1212 0.0328 0
1010 1212 1211 0.0328 0
1011 1012 1212 0.0328 0
1012 1213 1212 0.0328 0
1012 1013 1214 0.0328 0
1012 1214 1213 0.0328 0
1013 1014 1214 0.0328 0
1014 1215 1214 0.0328 0
1014 1015 1216 0.0328 0
1014 1216 1215 0.0328 0
1015 1016 1216 0.0328 0
1016 1217 1216 0.0328 0
1016 1017 1218 0.0328 0
1016 1218 1217 0.0328 0
1017 1018 1218 0.0328 0
1018 1219 1218 0.0328 0
1018 1019 1220 0.0328 0
1018 1220 1219 0.0328 0
1019 1020 1220 0.0328 0
1020 1221 1220 0.0328 0
1020 1021 1222 0.0328 0
1020 1222 1221 0.0328 0
1021 1022 1222 0.0328 0
1022 1223 1222 0.0328 0
1022 1023 1224 0.0328 0
1022 1224 1223 0.0328 0
1023 1024 1224 0.0328 0
1024 1225 1224 0.0328 0
1024 1025 1226 0.0328 0
1024 1226 1225 0.0328 0
1025 1026 1226 0.0328 0
1026 1227 1226 0.0328 0
1026 1027 1228 0.0328 0
1026 1228 1227 0.0328 0
1027 1028 1228 0.0328 0
1028 1229 1228 0.0328 0
1028 1029 1230 0.0328 0
1028 1230 1229 0.0328 0
1029 1030 1230 0.0328 0
1030 1231 1230 0.0328 0
1030 1031 1232 0.0328 0
1030 1232 1231 0.0328 0
1031 1032 1232 0.0328 0
1032 1233 1232 0.0328 0
1032 1033 1234 0.0328 0
1032 1234 1233 0.0328 0
1033 1034 1234 0.0328 0
1034 1235 1234 0.0328 0
1034 1035 1236 0.0328 0
1034 1236 1235 0.0328 0
1035 1036 1236 0.0328 0
1036 1237 1236 0.0328 0
1036 1037 1238 0.0328 0
1036 1238 1237 0.0328 0
1037 1038 1238 0.0328 0
1038 1239 1238 0.0328 0
1038 1039 1240 0.0328 0
1038 1240 1239 0.0328 0
1039 1040 1240 0.0328 0
1040 1241 1240 0.0328 0
1040 1041 1242 0.0328 0
1040 1242 1241 0.0328 0
1041 1042 1242 0.0328 0
1042 1243 1242 0.0328 0
1042 1043 1244 0.0328 0
1042 1244 1243 0.0328 0
1043 1044 1244 0.0328 0
1044 1245 1244 0.0328 0
1044 1045 1246 0.0328 0
1044 1246 1245 0.0328 0
1045 1046 1246 0.0328 0
1046 1247 1246 0.0328 0
1046 1047 1248 0.0328 0
1046 1248 1247 0.0328 0
1047 1048 1248 0.0328 0
1048 1249 1248 0.0328 0
1048 1049 1250 0.0328 0
1048 1250 1249 0.0328 0
1049 1050 1250 0.0328 0
1050 1251 1250 0.0328 0
1050 1051 1252 0.0328 0
1050 1252 1251 0.0328 0
1051 1052 1252 0.0328 0
1052 1253 1252 0.0328 0
1052 1053 1254 0.0328 0
1052 1254 1253 0.0328 0
1053 1054 1254 0.0328 0
1054 1255 1254 0.0328 0
1054 1055 1256 0.0328 0
1054 1256 1255 0.0328 0
1055 1056 1256 0.0328 0
1056 1257 1256 0.0328 0
1056 1057 1258 0.0328 0
1056 1258 1257 0.0328 0
1057 1058 1258 0.0328 0
1058 1259 1258 0.0328 0
1058 1059 1260 0.0328 0
1058 1260 1259 0.0328 0
1059 1060 1260 0.0328 0
1060 1261 1260 0.0328 0
1060 1061 1262 0.0328 0
1060 1262 1261 0.0328 0
1061 1062 1262 0.0328 0
1062 1263 1262 0.0328 0
1062 1063 1264 0.0328 0
1062 1264 1263 0.0328 0
1063 1064 1264 0.0328 0
1064 1265 1264 0.0328 0
1064 1065 1266 0.0328 0
1064 1266 1265 0.0328 0
1065 1066 1266 0.0328 0
1066 1267 1266 0.0328 0
1066 1067 1268 0.0328 0
1066 1268 1267 0.0328 0
1067 1068 1268 0.0328 0
1068 1269 1268 0.0328 0
1068 1069 1270 0.0328 0
1068 1270 1269 0.0328 0
1069 1070 1270 0.0328 0
1070 1271 1270 0.0328 0
1070 1071 1272 0.0328 0
1070 1272 1271 0.0328 0
1071 1072 1272 0.0328 0
1072 1273 1272 0.0328 0
1072 1073 1274 0.0328 0
1072 1274 1273 0.0328 0
1073 1074 1274 0.0328 0
1074 1275 1274 0.0328 0
1074 1075 1276 0.0328 0
1074 1276 1275 0.0328 0
1075 1076 1276 0.0328 0
1076 1277 1276 0.0328 0
1076 1077 1278 0.0328 0
1076 1278 1277 0.0328 0
1077 1078 1278 0.0328 0
1078 1279 1278 0.0328 0
1078 1079 1280 0.0328 0
1078 1280 1279 0.0328 0
1079 1080 1280 0.0328 0
1080 1281 1280 0.0328 0
1080 1081 1282 0.0328 0
1080 1282 1281 0.0328 0
1081 1082 1282 0.0328 0
1082 1283 1282 0.0328 0
1082 1083 1284 0.0328 0
1082 1284 1283 0.0328 0
1083 1084 1284 0.0328 0
1084 1285 1284 0.0328 0
1084 1085 1286 0.0328 0
1084 1286 1285 0.0328 0
1085 1086 1286 0.0328 0
1086 1287 1286 0.0328 0
1086 1087 1288 0.0328 0
1086 1288 1287 0.0328 0
1087 1088 1288 0.0328 0
1088 1289 1288 0.0328 0
1088 1089 1290 0.0328 0
1088 1290 1289 0.0328 0
1089 1090 1290 0.0328 0
1090 1291 1290 0.0328 0
1090 1091 1292 0.0328 0
1090 1292 1291 0.0328 0
1091 1092 1292 0.0328 0
1092 1293 1292 0.0328 0
1092 1093 1294 0.0328 0
1092 1294 1293 0.0328 0
1093 1094 1294 0.0328 0
1094 1295 1294 0.0328 0
1094 1095 1296 0.0328 0
1094 1296 1295 0.0328 0
1095 1096 1296 0.0328 0
1096 1297 1296 0.0328 0
1096 1097 1298 0.0328 0
1096 1298 1297 0.0328 0
1097 1098 1298 0.0328 0
1098 1299 1298 0.0328 0
1098 1099 1300 0.0328 0
1098 1300 1299 0.0328 0
1099 1100 1300 0.0328 0
1100 1301 1300 0.0328 0
1100 1101 1302 0.0328 0
1100 1302 1301 0.0328 0
1101 1102 1302 0.0328 0
1102 1303 1302 0.0328 0
1102 1103 1304 0.0328 0
1102 1304 1303 0.0328 0
1103 1104 1304 0.0328 0
1104 1305 1304 0.0328 0
1104 1105 1306 0.0328 0
1104 1306 1305 0.0328 0
1105 1106 1306 0.0328 0
1106 1307 1306 0.0328 0
1106 1107 1308 0.0328 0
1106 1308 1307 0.0328 0
1107 1108 1308 0.0328 0
1108 1309 1308 0.0328 0
1108 1109 1310 0.0328 0
1108 1310 1309 0.0328 0
1109 1110 1310 0.0328 0
1110 1311 1310 0.0328 0
1110 1111 1312 0.0328 0
1110 1312 1311 0.0328 0
1111 1112 1312 0.0328 0
1112 1313 1312 0.0328 0
1112 1113 1314 0.0328 0
1112 1314 1313 0.0328 0
1113 1114 1314 0.0328 0
1114 1315 1314 0.0328 0
1114 1115 1316 0.0328 0
1114 1316 1315 0.0328 0
1115 1116 1316 0.0328 0
1116 1317 1316 0.0328 0
1116 1117 1318 0.0328 0
1116 1318 1317 0.0328 0
1117 1118 1318 0.0328 0
1118 1319 1318 0.0328 0
1118 1119 1320 0.0328 0
1118 1320 1319 0.0328 0
1119 1120 1320 0.0328 0
1120 1321 1320 0.0328 0
1120 1121 1322 0.0328 0
1120 1322 1321 0.0328 0
1121 1122 1322 0.0328 0
1122 1323 1322 0.0328 0
1122 1123 1324 0.0328 0
1122 1324 1323 0.0328 0
1123 1124 1324 0.0328 0
1124 1325 1324 0.0328 0
1124 1125 1326 0.0328 0
1124 1326 1325 0.0328 0
1125 1126 1326 0.0328 0
1126 1327 1326 0.0328 0
1126 1127 1328 0.0328 0
1126 1328 1327 0.0328 0
1127 1128 1328 0.0328 0
1128 1329 1328 0.0328 0
1128 1129 1330 0.0328 0
1128 1330 1329 0.0328 0
1129 1130 1330 0.0328 0
1130 1331 1330 0.0328 0
1130 1131 1332 0.0328 0
1130 1332 1331 0.0328 0
1131 1132 1332 0.0328 0
1132 1333 1332 0.0328 0
1132 1133 1334 0.0328 0
1132 1334 1333 0.0328 0
1133 1134 1334 0.0328 0
1134 1335 1334 0.0328 0
1134 1135 1336 0.0328 0
1134 1336 1335 0.0328 0
1135 1136 1336 0.0328 0
1136 1337 1336 0.0328 0
1136 1137 1338 0.0328 0
1136 1338 1337 0.0328 0
1137 1138 1338 0.0328 0
1138 1339 1338 0.0328 0
1138 1139 1340 0.0328 0
1138 1340 1339 0.0328 0
1139 1140 1340 0.0328 0
1140 1341 1340 0.0328 0
1140 1141 1342 0.0328 0
1140 1342 1341 0.0328 0
1141 1142 1342 0.0328 0
1142 1343 1342 0.0328 0
1142 1143 1344 0.0328 0.00572081
1142 1344 1343 0.0328 0.00300012
1143 1144 1344 0.0328 0.0111822
1144 1345 1344 0.0328 0.0139229
1144 1145 1346 0.0328 0.022185
1144 1346 1345 0.0328 0.0194243
1145 1146 1346 0.0328 0.0277262
1146 1347 1346 0.0328 0.0305068
1146 1147 1348 0.0328 0.0388881
1146 1348 1347 0.0328 0.0360877
1147 1148 1348 0.0328 0.0445086
1148 1349 1348 0.0328 0.0473287
1148 1149 1350 0.0328 0.0558282
1148 1350 1349 0.0328 0.0529885
1149 1150 1350 0.0328 0.0615273
1150 1351 1350 0.0328 0.0643866
1150 1151 1352 0.0328 0.0730034
1150 1352 1351 0.0328 0.0701246
1151 1152 1352 0.0328 0.0787803
1152 1353 1352 0.0328 0.0816785
1152 1153 1354 0.0328 0.0904115
1152 1354 1353 0.0328 0.087494
1153 1154 1354 0.0328 0.0962655
1154 1355 1354 0.0328 0.0992021
1154 1155 1356 0.0328 0.10805
1154 1356 1355 0.0328 0.105094
1155 1156 1356 0.0328 0.11398
1156 1357 1356 0.0328 0.116955
1156 1157 1358 0.0328 0.125917
1156 1358 1357 0.0328 0.122923
1157 1158 1358 0.0328 0.131923
1158 1359 1358 0.0328 0.134935
1158 1159 1360 0.0328 0.144009
1158 1360 1359 0.0328 0.140978
1159 1160 1360 0.0328 0.15009
1160 1361 1360 0.0328 0.153139
1160 1161 1362 0.0328 0.162324
1160 1362 1361 0.0328 0.159256
1161 1162 1362 0.0328 0.168478
1162 1363 1362 0.0328 0.171564
1162 1163 1364 0.0328 0.180859
1162 1364 1363 0.0328 0.177755
1163 1164 1364 0.0328 0.187086
1164 1365 1364 0.0328 0.190208
1164 1165 1366 0.0328 0.199611
1164 1366 1365 0.0328 0.196471
1165 1166 1366 0.0328 0.205909
1166 1367 1366 0.0328 0.209068
1166 1167 1368 0.0328 0.218577
1166 1368 1367 0.0328 0.215401
1167 1168 1368 0.0328 0.224946
1168 1369 1368 0.0328 0.228139
1168 1169 1370 0.0328 0.237753
1168 1370 1369 0.0328 0.234542
1169 1170 1370 0.0328 0.244191
1170 1371 1370 0.0328 0.247419
1170 1171 1372 0.0328 0.257136
1170 1372 1371 0.0328 0.253891
1171 1172 1372 0.0328 0.263642
1172 1373 1372 0.0328 0.266904
1172 1173 1374 0.0328 0.276722
1172 1374 1373 0.0328 0.273444
1173 1174 1374 0.0328 0.283295
1174 1375 1374 0.0328 0.28659
1174 1175 1376 0.0328 0.296508
1174 1376 1375 0.0328 0.293196
1175 1176 1376 0.0328 0.303146
1176 1377 1376 0.0328 0.306474
1176 1177 1378 0.0328 0.316489
1176 1378 1377 0.0328 0.313145
1177 1178 1378 0.0328 0.323192
1178 1379 1378 0.0328 0.326552
1178 1179 1380 0.0328 0.336662
1178 1380 1379 0.0328 0.333286
1179 1180 1380 0.0328 0.343428
1180 1381 1380 0.0328 0.346818
1180 1181 1382 0.0328 0.357022
1180 1382 1381 0.0328 0.353615
1181 1182 1382 0.0328 0.363849
1182 1383 1382 0.0328 0.36727
1182 1183 1384 0.0328 0.377565
1182 1384 1383 0.0328 0.374128
1183 1184 1384 0.0328 0.384452
1184 1385 1384 0.0328 0.387903
1184 1185 1386 0.0328 0.398286
1184 1386 1385 0.0328 0.39482
1185 1186 1386 0.0328 0.405232
1186 1387 1386 0.0328 0.408712
1186 1187 1388 0.0328 0.419181
1186 1388 1387 0.0328 0.415687
1187 1188 1388 0.0328 0.426184
1188 1389 1388 0.0328 0.429692
1188 1189 1390 0.0328 0.440245
1188 1390 1389 0.0328 0.436723
1189 1190 1390 0.0328 0.447304
1190 1391 1390 0.0328 0.450839
1190 1191 1392 0.0328 0.461474
1190 1392 1391 0.0328 0.457925
1191 1192 1392 0.0328 0.468586
1192 1393 1392 0.0328 0.472148
1192 1193 1394 0.0328 0.482861
1192 1394 1393 0.0328 0.479286
1193 1194 1394 0.0328 0.490025
1194 1395 1394 0.0328 0.493613
1194 1195 1396 0.0328 0.504403
1194 1396 1395 0.0328 0.500802
1195 1196 1396 0.0328 0.511617
1196 1397 1396 0.0328 0.51523
1196 1197 1398 0.0328 0.526093
1196 1398 1397 0.0328 0.522468
1197 1198 1398 0.0328 0.533355
1198 1399 1398 0.0328 0.536992
1198 1199 1400 0.0328 0.547926
1198 1400 1399 0.0328 0.544278
1199 1200 1400 0.0328 0.555235
1200 1401 1400 0.0328 0.558895
1200 1201 1402 0.0328 0.569898
1200 1402 1401 0.0328 0.566226
1201 1202 1402 0.0328 0.577251
1202 1403 1402 0.0328 0.580933
1202 1203 1404 0.0328 0.592001
1202 1404 1403 0.0328 0.588308
1203 1204 1404 0.0328 0.599397
1204 1405 1404 0.0328 0.6031
1204 1205 1406 0.0328 0.61423
1204 1406 1405 0.0328 0.610517
1206 1207 1408 0.0328 0
1206 1408 1407 0.0328 0
1207 1208 1408 0.0328 0
1208 1409 1408 0.0328 0
1208 1209 1410 0.0328 0
1208 1410 1409 0.0328 0
1209 1210 1410 0.0328 0
1210 1411 1410 0.0328 0
1210 1211 1412 0.0328 0
1210 1412 1411 0.0328 0
1211 1212 1412 0.0328 0
1212 1413 1412 0.0328 0
1212 1213 1414 0.0328 0
1212 1414 1413 0.0328 0
1213 1214 1414 0.0328 0
1214 1415 1414 0.0328 0
1214 1215 1416 0.0328 0
1214 1416 1415 0.0328 0
1215 1216 1416 0.0328 0
1216 1417 1416 0.0328 0
1216 1217 1418 0.0328 0
1216 1418 1417 0.0328 0
1217 1218 1418 0.0328 0
1218 1419 1418 0.0328 0
1218 1219 1420 0.0328 0
1218 1420 1419 0.0328 0
1219 1220 1420 0.0328 0
1220 1421 1420 0.0328 0
1220 1221 1422 0.0328 0
1220 1422 1421 0.0328 0
1221 1222 1422 0.0328 0
1222 1423 1422 0.0328 0
1222 1223 1424 0.0328 0
1222 1424 1423 0.0328 0
1223 1224 1424 0.0328 0
1224 1425 1424 0.0328 0
1224 1225 1426 0.0328 0
1224 1426 1425 0.0328 0
1225 1226 1426 0.0328 0
1226 1427 1426 0.0328 0
1226 1227 1428 0.0328 0
1226 1428 1427 0.0328 0
1227 1228 1428 0.0328 0
1228 1429 1428 0.0328 0
1228 1229 1430 0.0328 0
1228 1430 1429 0.0328 0
1229 1230 1430 0.0328 0
1230 1431 1430 0.0328 0
1230 1231 1432 0.0328 0
1230 1432 1431 0.0328 0
1231 1232 1432 0.0328 0
1232 1433 1432 0.0328 0
1232 1233 1434 0.0328 0
1232 1434 1433 0.0328 0
1233 1234 1434 0.0328 0
1234 1435 1434 0.0328 0
1234 1235 1436 0.0328 0
1234 1436 1435 0.0328 0
1235 1236 1436 0.0328 0
1236 1437 1436 0.0328 0
1236 1237 1438 0.0328 0
1236 1438 1437 0.0328 0
1237 1238 1438 0.0328 0
1238 1439 1438 0.0328 0
1238 1239 1440 0.0328 0
1238 1440 1439 0.0328 0
1239 1240 1440 0.0328 0
1240 1441 1440 0.0328 0
1240 1241 1442 0.0328 0
1240 1442 1441 0.0328 0
1241 1242 1442 0.0328 0
1242 1443 1442 0.0328 0
1242 1243 1444 0.0328 0
1242 1444 1443 0.0328 0
1243 1244 1444 0.0328 0
1244 1445 1444 0.0328 0
1244 1245 1446 0.0328 0
1244 1446 1445 0.0328 0
1245 1246 1446 0.0328 0
1246 1447 1446 0.0328 0
1246 1247 1448 0.0328 0
1246 1448 1447 0.0328 0
1247 1248 1448 0.0328 0
1248 1449 1448 0.0328 0
1248 1249 1450 0.0328 0
1248 1450 1449 0.0328 0
1249 1250 1450 0.0328 0
1250 1451 1450 0.0328 0
1250 1251 1452 0.0328 0
1250 1452 1451 0.0328 0
1251 1252 1452 0.0328 0
1252 1453 1452 0.0328 0
1252 1253 1454 0.0328 0
1252 1454 1453 0.0328 0
1253 1254 1454 0.0328 0
1254 1455 1454 0.0328 0
1254 1255 1456 0.0328 0
1254 1456 1455 0.0328 0
1255 1256 1456 0.0328 0
1256 1457 1456 0.0328 0
1256 1257 1458 0.0328 0
1256 1458 1457 0.0328 0
1257 1258 1458 0.0328 0
1258 1459 1458 0.0328 0
1258 1259 1460 0.0328 0
1258 1460 1459 0.0328 0
1259 1260 1460 0.0328 0
1260 1461 1460 0.0328 0
1260 1261 1462 0.0328 0
1260 1462 1461 0.0328 0
1261 1262 1462 0.0328 0
1262 1463 1462 0.0328 0
1262 1263 1464 0.0328 0
1262 1464 1463 0.0328 0
1263 1264 1464 0.0328 0
1264 1465 1464 0.0328 0
1264 1265 1466 0.0328 0
1264 1466 1465 0.0328 0
1265 1266 1466 0.0328 0
1266 1467 1466 0.0328 0
1266 1267 1468 0.0328 0
1266 1468 1467 0.0328 0
1267 1268 1468 0.0328 0
1268 1469 1468 0.0328 0
1268 1269 1470 0.0328 0
1268 1470 1469 0.0328 0
1269 1270 1470 0.0328 0
1270 1471 1470 0.0328 0
1270 1271 1472 0.0328 0
1270 1472 1471 0.0328 0
1271 1272 1472 0.0328 0
1272 1473 1472 0.0328 0
1272 1273 1474 0.0328 0
1272 1474 1473 0.0328 0
1273 1274 1474 0.0328 0
1274 1475 1474 0.0328 0
1274 1275 1476 0.0328 0
1274 1476 1475 0.0328 0
1275 1276 1476 0.0328 0
1276 1477 1476 0.0328 0
1276 1277 1478 0.0328 0
1276 1478 1477 0.0328 0
1277 1278 1478 0.0328 0
1278 1479 1478 0.0328 0
1278 1279 1480 0.0328 0
1278 1480 1479 0.0328 0
1279 1280 1480 0.0328 0
1280 1481 1480 0.0328 0
1280 1281 1482 0.0328 0
1280 1482 1481 0.0328 0
1281 1282 1482 0.0328 0
1282 1483 1482 0.0328 0
1282 1283 1484 0.0328 0
1282 1484 1483 0.0328 0
1283 1284 1484 0.0328 0
1284 1485 1484 0.0328 0
1284 1285 1486 0.0328 0
1284 1486 1485 0.0328 0
1285 1286 1486 0.0328 0
1286 1487 1486 0.0328 0
1286 1287 1488 0.0328 0
1286 1488 1487 0.0328 0
1287 1288 1488 0.0328 0
1288 1489 1488 0.0328 0
1288 1289 1490 0.0328 0
1288 1490 1489 0.0328 0
1289 1290 1490 0.0328 0
1290 1491 1490 0.0328 0
1290 1291 1492 0.0328 0
1290 1492 1491 0.0328 0
1291 1292 1492 0.0328 0
1292 1493 1492 0.0328 0
1292 1293 1494 0.0328 0
1292 1494 1493 0.0328 0
1293 1294 1494 0.0328 0
1294 1495 1494 0.0328 0
1294 1295 1496 0.0328 0
1294 1496 1495 0.0328 0
1295 1296 1496 0.0328 0
1296 1497 1496 0.0328 0
1296 1297 1498 0.0328 0
1296 1498 1497 0.0328 0
1297 1298 1498 0.0328 0
1298 1499 1498 0.0328 0
1298 1299 1500 0.0328 0
1298 1500 1499 0.0328 0
1299 1300 1500 0.0328 0
1300 1501 1500 0.0328 0
1300 1301 1502 0.0328 0
1300 1502 1501 0.0328 0
1301 1302 1502 0.0328 0
1302 1503 1502 0.0328 0
1302 1303 1504 0.0328 0
1302 1504 1503 0.0328 0
1303 1304 1504 0.0328 0
1304 1505 1504 0.0328 0
1304 1305 1506 0.0328 0
1304 1506 1505 0.0328 0
1305 1306 1506 0.0328 0
1306 1507 1506 0.0328 0
1306 1307 1508 0.0328 0
1306 1508 1507 0.0328 0
1307 1308 1508 0.0328 0
1308 1509 1508 0.0328 0
1308 1309 1510 0.0328 0
1308 1510 1509 0.0328 0
1309 1310 1510 0.0328 0
1310 1511 1510 0.0328 0
1310 1311 1512 0.0328 0
1310 1512 1511 0.0328 0
1311 1312 1512 0.0328 0
1312 1513 1512 0.0328 0
1312 1313 1514 0.0328 0
1312 1514 1513 0.0328 0
1313 1314 1514 0.0328 0
1314 1515 1514 0.0328 0
1314 1315 1516 0.0328 0
1314 1516 1515 0.0328 0
1315 1316 1516 0.0328 0
1316 1517 1516 0.0328 0
1316 1317 1518 0.0328 0
1316 1518 1517 0.0328 0
1317 1318 1518 0.0328 0
1318 1519 1518 0.0328 0
1318 1319 1520 0.0328 0
1318 1520 1519 0.0328 0
1319 1320 1520 0.0328 0
1320 1521 1520 0.0328 0
1320 1321 1522 0.0328 0
1320 1522 1521 0.0328 0
1321 1322 1522 0.0328 0
1322 1523 1522 0.0328 0
1322 1323 1524 0.0328 0
1322 1524 1523 0.0328 0
1323 1324 1524 0.0328 0
1324 1525 1524 0.0328 0
1324 1325 1526 0.0328 0
1324 1526 1525 0.0328 0
1325 1326 1526 0.0328 0
1326 1527 1526 0.0328 0
1326 1327 1528 0.0328 0
1326 1528 1527 0.0328 0
1327 1328 1528 0.0328 0
1328 1529 1528 0.0328 0
1328 1329 1530 0.0328 0
1328 1530 1529 0.0328 0
1329 1330 1530 0.0328 0
1330 1531 1530 0.0328 0
1330 1331 1532 0.0328 0
1330 1532 1531 0.0328 0
1331 1332 1532 0.0328 0
1332 1533 1532 0.0328 0
1332 1333 1534 0.0328 0
1332 1534 1533 0.0328 0
1333 1334 1534 0.0328 0
1334 1535 1534 0.0328 0
1334 1335 1536 0.0328 0
1334 1536 1535 0.0328 0
1335 1336 1536 0.0328 0
1336 1537 1536 0.0328 0
1336 1337 1538 0.0328 0
1336 1538 1537 0.0328 0
1337 1338 1538 0.0328 0
1338 1539 1538 0.0328 0
1338 1339 1540 0.0328 0
1338 1540 1539 0.0328 0
1339 1340 1540 0.0328 0
1340 1541 1540 0.0328 0
1340 1341 1542 0.0328 0
1340 1542 1541 0.0328 0
1341 1342 1542 0.0328 0
1342 1543 1542 0.0328 0
1342 1343 1544 0.0328 0
1342 1544 1543 0.0328 0
1343 1344 1544 0.0328 0.00300012
1344 1545 1544 0.0328 0.00572081
1344 1345 1546 0.0328 0.0139229
1344 1546 1545 0.0328 0.0111822
1345 1346 1546 0.0328 0.0194243
1346 1547 1546 0.0328 0.022185
1346 1347 1548 0.0328 0.0305068
1346 1548 1547 0.0328 0.0277262
1347 1348 1548 0.0328 0.0360877
1348 1549 1548 0.0328 0.0388881
1348 1349 1550 0.0328 0.0473287
1348 1550 1549 0.0328 0.0445086
1349 1350 1550 0.0328 0.0529885
1350 1551 1550 0.0328 0.0558282
1350 1351 1552 0.0328 0.0643866
1350 1552 1551 0.0328 0.0615273
1351 1352 1552 0.0328 0.0701246
1352 1553 1552 0.0328 0.0730034
1352 1353 1554 0.0328 0.0816785
1352 1554 1553 0.0328 0.0787803
1353 1354 1554 0.0328 0.087494
1354 1555 1554 0.0328 0.0904115
1354 1355 1556 0.0328 0.0992021
1354 1556 1555 0.0328 0.0962655
1355 1356 1556 0.0328 0.105094
1356 1557 1556 0.0328 0.10805
1356 1357 1558 0.0328 0.116955
1356 1558 1557 0.0328 0.11398
1357 1358 1558 0.0328 0.122923
1358 1559 1558 0.0328 0.125917
1358 1359 1560 0.0328 0.134935
1358 1560 1559 0.0328 0.131923
1359 1360 1560 0.0328 0.140978
1360 1561 1560 0.0328 0.144009
1360 1361 1562 0.0328 0.153139
1360 1562 1561 0.0328 0.15009
1361 1362 1562 0.0328 0.159256
1362 1563 1562 0.0328 0.162324
1362 1363 1564 0.0328 0.171564
1362 1564 1563 0.0328 0.168478
1363 1364 1564 0.0328 0.177755
1364 1565 1564 0.0328 0.180859
1364 1365 1566 0.0328 0.190208
1364 1566 1565 0.0328 0.187086
1365 1366 1566 0.0328 0.196471
1366 1567 1566 0.0328 0.199611
1366 1367 1568 0.0328 0.209068
1366 1568 1567 0.0328 0.205909
1367 1368 1568 0.0328 0.215401
1368 1569 1568 0.0328 0.218577
1368 1369 1570 0.0328 0.228139
1368 1570 1569 0.0328 0.224946
1369 1370 1570 0.0328 0.234542
1370 1571 1570 0.0328 0.237753
1370 1371 1572 0.0328 0.247419
1370 1572 1571 0.0328 0.244191
1371 1372 1572 0.0328 0.253891
1372 1573 1572 0.0328 0.257136
1372 1373 1574 0.0328 0.266904
1372 1574 1573 0.0328 0.263642
1373 1374 1574 0.0328 0.273444
1374 1575 1574 0.0328 0.276722
1374 1375 1576 0.0328 0.28659
1374 1576 1575 0.0328 0.283295
1375 1376 1576 0.0328 0.293196
1376 1577 1576 0.0328 0.296508
1376 1377 1578 0.0328 0.306474
1376 1578 1577 0.0328 0.303146
1377 1378 1578 0.0328 0.313145
1378 1579 1578 0.0328 0.316489
1378 1379 1580 0.0328 0.326552
1378 1580 1579 0.0328 0.323192
1379 1380 1580 0.0328 0.333286
1380 1581 1580 0.0328 0.336662
1380 1381 1582 0.0328 0.346818
1380 1582 1581 0.0328 0.343428
1381 1382 1582 0.0328 0.353615
1382 1583 1582 0.0328 0.357022
1382 1383 1584 0.0328 0.36727
1382 1584 1583 0.0328 0.363849
1383 1384 1584 0.0328 0.374128
1384 1585 1584 0.0328 0.377565
1384 1385 1586 0.0328 0.387903
1384 1586 1585 0.0328 0.384452
1385 1386 1586 0.0328 0.39482
1386 1587 1586 0.0328 0.398286
1386 1387 1588 0.0328 0.408712
1386 1588 1587 0.0328 0.405232
1387 1388 1588 0.0328 0.415687
1388 1589 1588 0.0328 0.419181
1388 1389 1590 0.0328 0.429692
1388 1590 1589 0.0328 0.426184
1389 1390 1590 0.0328 0.436723
1390 1591 1590 0.0328 0.440245
1390 1391 1592 0.0328 0.450839
1390 1592 1591 0.0328 0.447304
1391 1392 1592 0.0328 0.457925
1392 1593 1592 0.0328 0.461474
1392 1393 1594 0.0328 0.472148
1392 1594 1593 0.0328 0.468586
1393 1394 1594 0.0328 0.479286
1394 1595 1594 0.0328 0.482861
1394 1395 1596 0.0328 0.493613
1394 1596 1595 0.0328 0.490025
1395 1396 1596 0.0328 0.500802
1396 1597 1596 0.0328 0.504403
1396 1397 1598 0.0328 0.51523
1396 1598 1597 0.0328 0.511617
1397 1398 1598 0.0328 0.522468
1398 1599 1598 0.0328 0.526093
1398 1399 1600 0.0328 0.536992
1398 1600 1599 0.0328 0.533355
1399 1400 1600 0.0328 0.544278
1400 1601 1600 0.0328 0.547926
1400 1401 1602 0.0328 0.558895
1400 1602 1601 0.0328 0.555235
1401 1402 1602 0.0328 0.566226
1402 1603 1602 0.0328 0.569898
1402 1403 1604 0.0328 0.580933
1402 1604 1603 0.0328 0.577251
1403 1404 1604 0.0328 0.588308
1404 1605 1604 0.0328 0.592001
1404 1405 1606 0.0328 0.6031
1404 1606 1605 0.0328 0.599397
1405 1406 1606 0.0328 0.610517
1406 1607 1606 0.0328 0.61423
1407 1408 1608 0.0328 0
1408 1609 1608 0.0328 0
1408 1409 1610 0.0328 0
1408 1610 1609 0.0328 0
1409 1410 1610 0.0328 0
1410 1611 1610 0.0328 0
1410 1411 1612 0.0328 0
1410 1612 1611 0.0328 0
1411 1412 1612 0.0328 0
1412 1613 1612 0.0328 0
1412 1413 1614 0.0328 0
1412 1614 1613 0.0328 0
1413 1414 1614 0.0328 0
1414 1615 1614 0.0328 0
1414 1415 1616 0.0328 0
1414 1616 1615 0.0328 0
1415 1416 1616 0.0328 0
1416 1617 1616 0.0328 0
1416 1417 1618 0.0328 0
1416 1618 1617 0.0328 0
1417 1418 1618 0.0328 0
1418 1619 1618 0.0328 0
1418 1419 1620 0.0328 0
1418 1620 1619 0.0328 0
1419 1420 1620 0.0328 0
1420 1621 1620 0.0328 0
1420 1421 1622 0.0328 0
1420 1622 1621 0.0328 0
1421 1422 1622 0.0328 0
1422 1623 1622 0.0328 0
1422 1423 1624 0.0328 0
1422 1624 1623 0.0328 0
1423 1424 1624 0.0328 0
1424 1625 1624 0.0328 0
1424 1425 1626 0.0328 0
1424 1626 1625 0.0328 0
1425 1426 1626 0.0328 0
1426 1627 1626 0.0328 0
1426 1427 1628 0.0328 0
1426 1628 1627 0.0328 0
1427 1428 1628 0.0328 0
1428 1629 1628 0.0328 0
1428 1429 1630 0.0328 0
1428 1630 1629 0.0328 0
1429 1430 1630 0.0328 0
1430 1631 1630 0.0328 0
1430 1431 1632 0.0328 0
1430 1632 1631 0.0328 0
1431 1432 1632 0.0328 0
1432 1633 1632 0.0328 0
1432 1433 1634 0.0328 0
1432 1634 1633 0.0328 0
1433 1434 1634 0.0328 0
1434 1635 1634 0.0328 0
1434 1435 1636 0.0328 0
1434 1636 1635 0.0328 0
1435 1436 1636 0.0328 0
1436 1637 1636 0.0328 0
1436 1437 1638 0.0328 0
1436 1638 1637 0.0328 0
1437 1438 1638 0.0328 0
1438 1639 1638 0.0328 0
1438 1439 1640 0.0328 0
1438 1640 1639 0.0328 0
1439 1440 1640 0.0328 0
1440 1641 1640 0.0328 0
1440 1441 1642 0.0328 0
1440 1642 1641 0.0328 0
1441 1442 1642 0.0328 0
1442 1643 1642 0.0328 0
1442 1443 1644 0.0328 0
1442 1644 1643 0.0328 0
1443 1444 1644 0.0328 0
1444 1645 1644 0.0328 0
1444 1445 1646 0.0328 0
1444 1646 1645 0.0328 0
1445 1446 1646 0.0328 0
1446 1647 1646 0.0328 0
1446 1447 1648 0.0328 0
1446 1648 1647 0.0328 0
1447 1448 1648 0.0328 0
1448 1649 1648 0.0328 0
1448 1449 1650 0.0328 0
1448 1650 1649 0.0328 0
1449 1450 1650 0.0328 0
1450 1651 1650 0.0328 0
1450 1451 1652 0.0328 0
1450 1652 1651 0.0328 0
1451 1452 1652 0.0328 0
1452 1653 1652 0.0328 0
1452 1453 1654 0.0328 0
1452 1654 1653 0.0328 0
1453 1454 1654 0.0328 0
1454 1655 1654 0.0328 0
1454 1455 1656 0.0328 0
1454 1656 1655 0.0328 0
1455 1456 1656 0.0328 0
1456 1657 1656 0.0328 0
1456 1457 1658 0.0328 0
1456 1658 1657 0.0328 0
1457 1458 1658 0.0328 0
1458 1659 1658 0.0328 0
1458 1459 1660 0.0328 0
1458 1660 1659 0.0328 0
1459 1460 1660 0.0328 0
1460 1661 1660 0.0328 0
1460 1461 1662 0.0328 0
1460 1662 1661 0.0328 0
1461 1462 1662 0.0328 0
1462 1663 1662 0.0328 0
1462 1463 1664 0.0328 0
1462 1664 1663 0.0328 0
1463 1464 1664 0.0328 0
1464 1665 1664 0.0328 0
1464 1465 1666 0.0328 0
1464 1666 1665 0.0328 0
1465 1466 1666 0.0328 0
1466 1667 1666 0.0328 0
1466 1467 1668 0.0328 0
1466 1668 1667 0.0328 0
1467 1468 1668 0.0328 0
1468 1669 1668 0.0328 0
1468 1469 1670 0.0328 0
1468 1670 1669 0.0328 0
1469 1470 1670 0.0328 0
1470 1671 1670 0.0328 0
1470 1471 1672 0.0328 0
1470 1672 1671 0.0328 0
1471 1472 1672 0.0328 0
1472 1673 1672 0.0328 0
1472 1473 1674 0.0328 0
1472 1674 1673 0.0328 0
1473 1474 1674 0.0328 0
1474 1675 1674 0.0328 0
1474 1475 1676 0.0328 0
1474 1676 1675 0.0328 0
1475 1476 1676 0.0328 0
1476 1677 1676 0.0328 0
1476 1477 1678 0.0328 0
1476 1678 1677 0.0328 0
1477 1478 1678 0.0328 0
1478 1679 1678 0.0328 0
1478 1479 1680 0.0328 0
1478 1680 1679 0.0328 0
1479 1480 1680 0.0328 0
1480 1681 1680 0.0328 0
1480 1481 1682 0.0328 0
1480 1682 1681 0.0328 0
1481 1482 1682 0.0328 0
1482 1683 1682 0.0328 0
1482 1483 1684 0.0328 0
1482 1684 1683 0.0328 0
1483 1484 1684 0.0328 0
1484 1685 1684 0.0328 0
1484 1485 1686 0.0328 0
1484 1686 1685 0.0328 0
1485 1486 1686 0.0328 0
1486 1687 1686 0.0328 0
1486 1487 1688 0.0328 0
1486 1688 1687 0.0328 0
1487 1488 1688 0.0328 0
1488 1689 1688 0.0328 0
1488 1489 1690 0.0328 0
1488 1690 1689 0.0328 0
1489 1490 1690 0.0328 0
1490 1691 1690 0.0328 0
1490 1491 1692 0.0328 0
1490 1692 1691 0.0328 0
1491 1492 1692 0.0328 0
1492 1693 1692 0.0328 0
1492 1493 1694 0.0328 0
1492 1694 1693 0.0328 0
1493 1494 1694 0.0328 0
1494 1695 1694 0.0328 0
1494 1495 1696 0.0328 0
1494 1696 1695 0.0328 0
1495 1496 1696 0.0328 0
1496 1697 1696 0.0328 0
1496 1497 1698 0.0328 0
1496 1698 1697 0.0328 0
1497 1498 1698 0.0328 0
1498 1699 1698 0.0328 0
1498 1499 1700 0.0328 0
1498 1700 1699 0.0328 0
1499 1500 1700 0.0328 0
1500 1701 1700 0.0328 0
1500 1501 1702 0.0328 0
1500 1702 1701 0.0328 0
1501 1502 1702 0.0328 0
1502 1703 1702 0.0328 0
1502 1503 1704 0.0328 0
1502 1704 1703 0.0328 0
1503 1504 1704 0.0328 0
1504 1705 1704 0.0328 0
1504 1505 1706 0.0328 0
1504 1706 1705 0.0328 0
1505 1506 1706 0.0328 0
1506 1707 1706 0.0328 0
1506 1507 1708 0.0328 0
1506 1708 1707 0.0328 0
1507 1508 1708 0.0328 0
1508 1709 1708 0.0328 0
1508 1509 1710 0.0328 0
1508 1710 1709 0.0328 0
1509 1510 1710 0.0328 0
1510 1711 1710 0.0328 0
1510 1511 1712 0.0328 0
1510 1712 1711 0.0328 0
1511 1512 1712 0.0328 0
1512 1713 1712 0.0328 0
1512 1513 1714 0.0328 0
1512 1714 1713 0.0328 0
1513 1514 1714 0.0328 0
1514 1715 1714 0.0328 0
1514 1515 1716 0.0328 0
1514 1716 1715 0.0328 0
1515 1516 1716 0.0328 0
1516 1717 1716 0.0328 0
1516 1517 1718 0.0328 0
1516 1718 1717 0.0328 0
1517 1518 1718 0.0328 0
1518 1719 1718 0.0328 0
1518 1519 1720 0.0328 0
1518 1720 1719 0.0328 0
1519 1520 1720 0.0328 0
1520 1721 1720 0.0328 0
1520 1521 1722 0.0328 0
1520 1722 1721 0.0328 0
1521 1522 1722 0.0328 0
1522 1723 1722 0.0328 0
1522 1523 1724 0.0328 0
1522 1724 1723 0.0328 0
1523 1524 1724 0.0328 0
1524 1725 1724 0.0328 0
1524 1525 1726 0.0328 0
1524 1726 1725 0.0328 0
1525 1526 1726 0.0328 0
1526 1727 1726 0.0328 0
1526 1527 1728 0.0328 0
1526 1728 1727 0.0328 0
1527 1528 1728 0.0328 0
1528 1729 1728 0.0328 0
1528 1529 1730 0.0328 0
1528 1730 1729 0.0328 0
1529 1530 1730 0.0328 0
1530 1731 1730 0.0328 0
1530 1531 1732 0.0328 0
1530 1732 1731 0.0328 0
1531 1532 1732 0.0328 0
1532 1733 1732 0.0328 0
1532 1533 1734 0.0328 0
1532 1734 1733 0.0328 0
1533 1534 1734 0.0328 0
1534 1735 1734 0.0328 0
1534 1535 1736 0.0328 0
1534 1736 1735 0.0328 0
1535 1536 1736 0.0328 0
1536 1737 1736 0.0328 0
1536 1537 1738 0.0328 0
1536 1738 1737 0.0328 0
1537 1538 1738 0.0328 0
1538 1739 1738 0.0328 0
1538 1539 1740 0.0328 0
1538 1740 1739 0.0328 0
1539 1540 1740 0.0328 0
1540 1741 1740 0.0328 0
1540 1541 1742 0.0328 0
1540 1742 1741 0.0328 0
1541 1542 1742 0.0328 0
1542 1743 1742 0.0328 0
1542 1543 1744 0.0328 0
1542 1744 1743 0.0328 0
1543 1544 1744 0.0328 0
1544 1745 1744 0.0328 0
1544 1545 1746 0.0328 0.00572081
1544 1746 1745 0.0328 0.00300012
1545 1546 1746 0.0328 0.0111822
1546 1747 1746 0.0328 0.0139229
1546 1547 1748 0.0328 0.022185
1546 1748 1747 0.0328 0.0194243
1547 1548 1748 0.0328 0.0277262
1548 1749 1748 0.0328 0.0305068
1548 1549 1750 0.0328 0.0388881
1548 1750 1749 0.0328 0.0360877
1549 1550 1750 0.0328 0.0445086
1550 1751 1750 0.0328 0.0473287
1550 1551 1752 0.0328 0.0558282
1550 1752 1751 0.0328 0.0529885
1551 1552 1752 0.0328 0.0615273
1552 1753 1752 0.0328 0.0643866
1552 1553 1754 0.0328 0.0730034
1552 1754 1753 0.0328 0.0701246
1553 1554 1754 0.0328 0.0787803
1554 1755 1754 0.0328 0.0816785
1554 1555 1756 0.0328 0.0904115
1554 1756 1755 0.0328 0.087494
1555 1556 1756 0.0328 0.0962655
1556 1757 1756 0.0328 0.0992021
1556 1557 1758 0.0328 0.10805
1556 1758 1757 0.0328 0.105094
1557 1558 1758 0.0328 0.11398
1558 1759 1758 0.0328 0.116955
1558 1559 1760 0.0328 0.125917
1558 1760 1759 0.0328 0.122923
1559 1560 1760 0.0328 0.131923
1560 1761 1760 0.0328 0.134935
1560 1561 1762 0.0328 0.144009
1560 1762 1761 0.0328 0.140978
1561 1562 1762 0.0328 0.15009
1562 1763 1762 0.0328 0.153139
1562 1563 1764 0.0328 0.162324
1562 1764 1763 0.0328 0.159256
1563 1564 1764 0.0328 0.168478
1564 1765 1764 0.0328 0.171564
1564 1565 1766 0.0328 0.180859
1564 1766 1765 0.0328 0.177755
1565 1566 1766 0.0328 0.187086
1566 1767 1766 0.0328 0.190208
1566 1567 1768 0.0328 0.199611
1566 1768 1767 0.0328 0.196471
1567 1568 1768 0.0328 0.205909
1568 1769 1768 0.0328 0.209068
1568 1569 1770 0.0328 0.218577
1568 1770 1769 0.0328 0.215401
1569 1570 1770 0.0328 0.224946
1570 1771 1770 0.0328 0.228139
1570 1571 1772 0.0328 0.237753
1570 1772 1771 0.0328 0.234542
1571 1572 1772 0.0328 0.244191
1572 1773 1772 0.0328 0.247419
1572 1573 1774 0.0328 0.257136
1572 1774 1773 0.0328 0.253891
1573 1574 1774 0.0328 0.263642
1574 1775 1774 0.0328 0.266904
1574 1575 1776 0.0328 0.276722
1574 1776 1775 0.0328 0.273444
1575 1576 1776 0.0328 0.283295
1576 1777 1776 0.0328 0.28659
1576 1577 1778 0.0328 0.296508
1576 1778 1777 0.0328 0.293196
1577 1578 1778 0.0328 0.303146
1578 1779 1778 0.0328 0.306474
1578 1579 1780 0.0328 0.316489
1578 1780 1779 0.0328 0.313145
1579 1580 1780 0.0328 0.323192
1580 1781 1780 0.0328 0.326552
1580 1581 1782 0.0328 0.336662
1580 1782 1781 0.0328 0.333286
1581 1582 1782 0.0328 0.343428
1582 1783 1782 0.0328 0.346818
1582 1583 1784 0.0328 0.357022
1582 1784 1783 0.0328 0.353615
1583 1584 1784 0.0328 0.363849
1584 1785 1784 0.0328 0.36727
1584 1585 1786 0.0328 0.377565
1584 1786 1785 0.0328 0.374128
1585 1586 1786 0.0328 0.384452
1586 1787 1786 0.0328 0.387903
1586 1587 1788 0.0328 0.398286
1586 1788 1787 0.0328 0.39482
1587 1588 1788 0.0328 0.405232
1588 1789 1788 0.0328 0.408712
1588 1589 1790 0.0328 0.419181
1588 1790 1789 0.0328 0.415687
1589 1590 1790 0.0328 0.426184
1590 1791 1790 0.0328 0.429692
1590 1591 1792 0.0328 0.440245
1590 1792 1791 0.0328 0.436723
1591 1592 1792 0.0328 0.447304
1592 1793 1792 0.0328 0.450839
1592 1593 1794 0.0328 0.461474
1592 1794 1793 0.0328 0.457925
1593 1594 1794 0.0328 0.468586
1594 1795 1794 0.0328 0.472148
1594 1595 1796 0.0328 0.482861
1594 1796 1795 0.0328 0.479286
1595 1596 1796 0.0328 0.490025
1596 1797 1796 0.0328 0.493613
1596 1597 1798 0.0328 0.504403
1596 1798 1797 0.0328 0.500802
1597 1598 1798 0.0328 0.511617
1598 1799 1798 0.0328 0.51523
1598 1599 1800 0.0328 0.526093
1598 1800 1799 0.0328 0.522468
1599 1600 1800 0.0328 0.533355
1600 1801 1800 0.0328 0.536992
1600 1601 1802 0.0328 0.547926
1600 1802 1801 0.0328 0.544278
1601 1602 1802 0.0328 0.555235
1602 1803 1802 0.0328 0.558895
1602 1603 1804 0.0328 0.569898
1602 1804 1803 0.0328 0.566226
1603 1604 1804 0.0328 0.577251
1604 1805 1804 0.0328 0.580933
1604 1605 1806 0.0328 0.592001
1604 1806 1805 0.0328 0.588308
1605 1606 1806 0.0328 0.599397
1606 1807 1806 0.0328 0.6031
1606 1607 1808 0.0328 0.61423
1606 1808 1807 0.0328 0.610517
1608 1609 1810 0.0328 0
1608 1810 1809 0.0328 0
1609 1610 1810 0.0328 0
1610 1811 1810 0.0328 0
1610 1611 1812 0.0328 0
1610 1812 1811 0.0328 0
1611 1612 1812 0.0328 0
1612 1813 1812 0.0328 0
1612 1613 1814 0.0328 0
1612 1814 1813 0.0328 0
1613 1614 1814 0.0328 0
1614 1815 1814 0.0328 0
1614 1615 1816 0.0328 0
1614 1816 1815 0.0328 0
1615 1616 1816 0.0328 0
1616 1817 1816 0.0328 0
1616 1617 1818 0.0328 0
1616 1818 1817 0.0328 0
1617 1618 1818 0.0328 0
1618 1819 1818 0.0328 0
1618 1619 1820 0.0328 0
1618 1820 1819 0.0328 0
1619 1620 1820 0.0328 0
1620 1821 1820 0.0328 0
1620 1621 1822 0.0328 0
1620 1822 1821 0.0328 0
1621 1622 1822 0.0328 0
1622 1823 1822 0.0328 0
1622 1623 1824 0.0328 0
1622 1824 1823 0.0328 0
1623 1624 1824 0.0328 0
1624 1825 1824 0.0328 0
1624 1625 1826 0.0328 0
1624 1826 1825 0.0328 0
1625 1626 1826 0.0328 0
1626 1827 1826 0.0328 0
1626 1627 1828 0.0328 0
1626 1828 1827 0.0328 0
1627 1628 1828 0.0328 0
1628 1829 1828 0.0328 0
1628 1629 1830 0.0328 0
1628 1830 1829 0.0328 0
1629 1630 1830 0.0328 0
1630 1831 1830 0.0328 0
1630 1631 1832 0.0328 0
1630 1832 1831 0.0328 0
1631 1632 1832 0.0328 0
1632 1833 1832 0.0328 0
1632 1633 1834 0.0328 0
1632 1834 1833 0.0328 0
1633 1634 1834 0.0328 0
1634 1835 1834 0.0328 0
1634 1635 1836 0.0328 0
1634 1836 1835 0.0328 0
1635 1636 1836 0.0328 0
1636 1837 1836 0.0328 0
1636 1637 1838 0.0328 0
1636 1838 1837 0.0328 0
1637 1638 1838 0.0328 0
1638 1839 1838 0.0328 0
1638 1639 1840 0.0328 0
1638 1840 1839 0.0328 0
1639 1640 1840 0.0328 0
1640 1841 1840 0.0328 0
1640 1641 1842 0.0328 0
1640 1842 1841 0.0328 0
1641 1642 1842 0.0328 0
1642 1843 1842 0.0328 0
1642 1643 1844 0.0328 0
1642 1844 1843 0.0328 0
1643 1644 1844 0.0328 0
1644 1845 1844 0.0328 0
1644 1645 1846 0.0328 0
1644 1846 1845 0.0328 0
1645 1646 1846 0.0328 0
1646 1847 1846 0.0328 0
1646 1647 1848 0.0328 0
1646 1848 1847 0.0328 0
1647 1648 1848 0.0328 0
1648 1849 1848 0.0328 0
1648 1649 1850 0.0328 0
1648 1850 1849 0.0328 0
1649 1650 1850 0.0328 0
1650 1851 1850 0.0328 0
1650 1651 1852 0.0328 0
1650 1852 1851 0.0328 0
1651 1652 1852 0.0328 0
1652 1853 1852 0.0328 0
1652 1653 1854 0.0328 0
1652 1854 1853 0.0328 0
1653 1654 1854 0.0328 0
1654 1855 1854 0.0328 0
1654 1655 1856 0.0328 0
1654 1856 1855 0.0328 0
1655 1656 1856 0.0328 0
1656 1857 1856 0.0328 0
1656 1657 1858 0.0328 0
1656 1858 1857 0.0328 0
1657 1658 1858 0.0328 0
1658 1859 1858 0.0328 0
1658 1659 1860 0.0328 0
1658 1860 1859 0.0328 0
1659 1660 1860 0.0328 0
1660 1861 1860 0.0328 0
1660 1661 1862 0.0328 0
1660 1862 1861 0.0328 0
1661 1662 1862 0.0328 0
1662 1863 1862 0.0328 0
1662 1663 1864 0.0328 0
1662 1864 1863 0.0328 0
1663 1664 1864 0.0328 0
1664 1865 1864 0.0328 0
1664 1665 1866 0.0328 0
1664 1866 1865 0.0328 0
1665 1666 1866 0.0328 0
1666 1867 1866 0.0328 0
1666 1667 1868 0.0328 0
1666 1868 1867 0.0328 0
1667 1668 1868 0.0328 0
1668 1869 1868 0.0328 0
1668 1669 1870 0.0328 0
1668 1870 1869 0.0328 0
1669 1670 1870 0.0328 0
1670 1871 1870 0.0328 0
1670 1671 1872 0.0328 0
1670 1872 1871 0.0328 0
1671 1672 1872 0.0328 0
1672 1873 1872 0.0328 0
1672 1673 1874 0.0328 0
1672 1874 1873 0.0328 0
1673 1674 1874 0.0328 0
1674 1875 1874 0.0328 0
1674 1675 1876 0.0328 0
1674 1876 1875 0.0328 0
1675 1676 1876 0.0328 0
1676 1877 1876 0.0328 0
1676 1677 1878 0.0328 0
1676 1878 1877 0.0328 0
1677 1678 1878 0.0328 0
1678 1879 1878 0.0328 0
1678 1679 1880 0.0328 0
1678 1880 1879 0.0328 0
1679 1680 1880 0.0328 0
1680 1881 1880 0.0328 0
1680 1681 1882 0.0328 0
1680 1882 1881 0.0328 0
1681 1682 1882 0.0328 0
1682 1883 1882 0.0328 0
1682 1683 1884 0.0328 0
1682 1884 1883 0.0328 0
1683 1684 1884 0.0328 0
1684 1885 1884 0.0328 0
1684 1685 1886 0.0328 0
1684 1886 1885 0.0328 0
1685 1686 1886 0.0328 0
1686 1887 1886 0.0328 0
1686 1687 1888 0.0328 0
1686 1888 1887 0.0328 0
1687 1688 1888 0.0328 0
1688 1889 1888 0.0328 0
1688 1689 1890 0.0328 0
1688 1890 1889 0.0328 0
1689 1690 1890 0.0328 0
1690 1891 1890 0.0328 0
1690 1691 1892 0.0328 0
1690 1892 1891 0.0328 0
1691 1692 1892 0.0328 0
1692 1893 1892 0.0328 0
1692 1693 1894 0.0328 0
1692 1894 1893 0.0328 0
1693 1694 1894 0.0328 0
1694 1895 1894 0.0328 0
1694 1695 1896 0.0328 0
1694 1896 1895 0.0328 0
1695 1696 1896 0.0328 0
1696 1897 1896 0.0328 0
1696 1697 1898 0.0328 0
1696 1898 1897 0.0328 0
1697 1698 1898 0.0328 0
1698 1899 1898 0.0328 0
1698 1699 1900 0.0328 0
1698 1900 1899 0.0328 0
1699 1700 1900 0.0328 0
1700 1901 1900 0.0328 0
1700 1701 1902 0.0328 0
1700 1902 1901 0.0328 0
1701 1702 1902 0.0328 0
1702 1903 1902 0.0328 0
1702 1703 1904 0.0328 0
1702 1904 1903 0.0328 0
1703 1704 1904 0.0328 0
1704 1905 1904 0.0328 0
1704 1705 1906 0.0328 0
1704 1906 1905 0.0328 0
1705 1706 1906 0.0328 0
1706 1907 1906 0.0328 0
1706 1707 1908 0.0328 0
1706 1908 1907 0.0328 0
1707 1708 1908 0.0328 0
1708 1909 1908 0.0328 0
1708 1709 1910 0.0328 0
1708 1910 1909 0.0328 0
1709 1710 1910 0.0328 0
1710 1911 1910 0.0328 0
1710 1711 1912 0.0328 0
1710 1912 1911 0.0328 0
1711 1712 1912 0.0328 0
1712 1913 1912 0.0328 0
1712 1713 1914 0.0328 0
1712 1914 1913 0.0328 0
1713 1714 1914 0.0328 0
1714 1915 1914 0.0328 0
1714 1715 1916 0.0328 0
1714 1916 1915 0.0328 0
1715 1716 1916 0.0328 0
1716 1917 1916 0.0328 0
1716 1717 1918 0.0328 0
1716 1918 1917 0.0328 0
1717 1718 1918 0.0328 0
1718 1919 1918 0.0328 0
1718 1719 1920 0.0328 0
1718 1920 1919 0.0328 0
1719 1720 1920 0.0328 0
1720 1921 1920 0.0328 0
1720 1721 1922 0.0328 0
1720 1922 1921 0.0328 0
1721 1722 1922 0.0328 0
1722 1923 1922 0.0328 0
1722 1723 1924 0.0328 0
1722 1924 1923 0.0328 0
1723 1724 1924 0.0328 0
1724 1925 1924 0.0328 0
1724 1725 1926 0.0328 0
1724 1926 1925 0.0328 0
1725 1726 1926 0.0328 0
1726 1927 1926 0.0328 0
1726 1727 1928 0.0328 0
1726 1928 1927 0.0328 0
1727 1728 1928 0.0328 0
1728 1929 1928 0.0328 0
1728 1729 1930 0.0328 0
1728 1930 1929 0.0328 0
1729 1730 1930 0.0328 0
1730 1931 1930 0.0328 0
1730 1731 1932 0.0328 0
1730 1932 1931 0.0328 0
1731 1732 1932 0.0328 0
1732 1933 1932 0.0328 0
1732 1733 1934 0.0328 0
1732 1934 1933 0.0328 0
1733 1734 1934 0.0328 0
1734 1935 1934 0.0328 0
1734 1735 1936 0.0328 0
1734 1936 1935 0.0328 0
1735 1736 1936 0.0328 0
1736 1937 1936 0.0328 0
1736 1737 1938 0.0328 0
1736 1938 1937 0.0328 0
1737 1738 1938 0.0328 0
1738 1939 1938 0.0328 0
1738 1739 1940 0.0328 0
1738 1940 1939 0.0328 0
1739 1740 1940 0.0328 0
1740 1941 1940 0.0328 0
1740 1741 1942 0.0328 0
1740 1942 1941 0.0328 0
1741 1742 1942 0.0328 0
1742 1943 1942 0.0328 0
1742 1743 1944 0.0328 0
1742 1944 1943 0.0328 0
1743 1744 1944 0.0328 0
1744 1945 1944 0.0328 0
1744 1745 1946 0.0328 0
1744 1946 1945 0.0328 0
1745 1746 1946 0.0328 0.00300012
1746 1947 1946 0.0328 0.00572081
1746 1747 1948 0.0328 0.0139229
1746 1948 1947 0.0328 0.0111822
1747 1748 1948 0.0328 0.0194243
1748 1949 1948 0.0328 0.022185
1748 1749 1950 0.0328 0.0305068
1748 1950 1949 0.0328 0.0277262
1749 1750 1950 0.0328 0.0360877
1750 1951 1950 0.0328 0.0388881
1750 1751 1952 0.0328 0.0473287
1750 1952 1951 0.0328 0.0445086
1751 1752 1952 0.0328 0.0529885
1752 1953 1952 0.0328 0.0558282
1752 1753 1954 0.0328 0.0643866
1752 1954 1953 0.0328 0.0615273
1753 1754 1954 0.0328 0.0701246
1754 1955 1954 0.0328 0.0730034
1754 1755 1956 0.0328 0.0816785
1754 1956 1955 0.0328 0.0787803
1755 1756 1956 0.0328 0.087494
1756 1957 1956 0.0328 0.0904115
1756 1757 1958 0.0328 0.0992021
1756 1958 1957 0.0328 0.0962655
1757 1758 1958 0.0328 0.105094
1758 1959 1958 0.0328 0.10805
1758 1759 1960 0.0328 0.116955
1758 1960 1959 0.0328 0.11398
1759 1760 1960 0.0328 0.122923
1760 1961 1960 0.0328 0.125917
1760 1761 1962 0.0328 0.134935
1760 1962 1961 0.0328 0.131923
1761 1762 1962 0.0328 0.140978
1762 1963 1962 0.0328 0.144009
1762 1763 1964 0.0328 0.153139
1762 1964 1963 0.0328 0.15009
1763 1764 1964 0.0328 0.159256
1764 1965 1964 0.0328 0.162324
1764 1765 1966 0.0328 0.171564
1764 1966 1965 0.0328 0.168478
1765 1766 1966 0.0328 0.177755
1766 1967 1966 0.0328 0.180859
1766 1767 1968 0.0328 0.190208
1766 1968 1967 0.0328 0.187086
1767 1768 1968 0.0328 0.196471
1768 1969 1968 0.0328 0.199611
1768 1769 1970 0.0328 0.209068
1768 1970 1969 0.0328 0.205909
1769 1770 1970 0.0328 0.215401
1770 1971 1970 0.0328 0.218577
1770 1771 1972 0.0328 0.228139
1770 1972 1971 0.0328 0.224946
1771 1772 1972 0.0328 0.234542
1772 1973 1972 0.0328 0.237753
1772 1773 1974 0.0328 0.247419
1772 1974 1973 0.0328 0.244191
1773 1774 1974 0.0328 0.253891
1774 1975 1974 0.0328 0.257136
1774 1775 1976 0.0328 0.266904
1774 1976 1975 0.0328 0.263642
1775 1776 1976 0.0328 0.273444
1776 1977 1976 0.0328 0.276722
1776 1777 1978 0.0328 0.28659
1776 1978 1977 0.0328 0.283295
1777 1778 1978 0.0328 0.293196
1778 1979 1978 0.0328 0.296508
1778 1779 1980 0.0328 0.306474
1778 1980 1979 0.0328 0.303146
1779 1780 1980 0.0328 0.313145
1780 1981 1980 0.0328 0.316489
1780 1781 1982 0.0328 0.326552
1780 1982 1981 0.0328 0.323192
1781 1782 1982 0.0328 0.333286
1782 1983 1982 0.0328 0.336662
1782 1783 1984 0.0328 0.346818
1782 1984 1983 0.0328 0.343428
1783 1784 1984 0.0328 0.353615
1784 1985 1984 0.0328 0.357022
1784 1785 1986 0.0328 0.36727
1784 1986 1985 0.0328 0.363849
1785 1786 1986 0.0328 0.374128
1786 1987 1986 0.0328 0.377565
1786 1787 1988 0.0328 0.387903
1786 1988 1987 0.0328 0.384452
1787 1788 1988 0.0328 0.39482
1788 1989 1988 0.0328 0.398286
1788 1789 1990 0.0328 0.408712
1788 1990 1989 0.0328 0.405232
1789 1790 1990 0.0328 0.415687
1790 1991 1990 0.0328 0.419181
1790 1791 1992 0.0328 0.429692
1790 1992 1991 0.0328 0.426184
1791 1792 1992 0.0328 0.436723
1792 1993 1992 0.0328 0.440245
1792 1793 1994 0.0328 0.450839
1792 1994 1993 0.0328 0.447304
1793 1794 1994 0.0328 0.457925
1794 1995 1994 0.0328 0.461474
1794 1795 1996 0.0328 0.472148
1794 1996 1995 0.0328 0.468586
1795 1796 1996 0.0328 0.479286
1796 1997 1996 0.0328 0.482861
1796 1797 1998 0.0328 0.493613
1796 1998 1997 0.0328 0.490025
1797 1798 1998 0.0328 0.500802
1798 1999 1998 0.0328 0.504403
1798 1799 2000 0.0328 0.51523
1798 2000 1999 0.0328 0.511617
1799 1800 2000 0.0328 0.522468
1800 2001 2000 0.0328 0.526093
1800 1801 2002 0.0328 0.536992
1800 2002 2001 0.0328 0.533355
1801 1802 2002 0.0328 0.544278
1802 2003 2002 0.0328 0.547926
1802 1803 2004 0.0328 0.558895
1802 2004 2003 0.0328 0.555235
1803 1804 2004 0.0328 0.566226
1804 2005 2004 0.0328 0.569898
1804 1805 2006 0.0328 0.580933
1804 2006 2005 0.0328 0.577251
1805 1806 2006 0.0328 0.588308
1806 2007 2006 0.0328 0.592001
1806 1807 2008 0.0328 0.6031
1806 2008 2007 0.0328 0.599397
1807 1808 2008 0.0328 0.610517
1808 2009 2008 0.0328 0.61423
1809 1810 2010 0.0328 0
1810 2011 2010 0.0328 0
1810 1811 2012 0.0328 0
1810 2012 2011 0.0328 0
1811 1812 2012 0.0328 0
1812 2013 2012 0.0328 0
1812 1813 2014 0.0328 0
1812 2014 2013 0.0328 0
1813 1814 2014 0.0328 0
1814 2015 2014 0.0328 0
1814 1815 2016 0.0328 0
1814 2016 2015 0.0328 0
1815 1816 2016 0.0328 0
1816 2017 2016 0.0328 0
1816 1817 2018 0.0328 0
1816 2018 2017 0.0328 0
1817 1818 2018 0.0328 0
1818 2019 2018 0.0328 0
1818 1819 2020 0.0328 0
1818 2020 2019 0.0328 0
1819 1820 2020 0.0328 0
1820 2021 2020 0.0328 0
1820 1821 2022 0.0328 0
1820 2022 2021 0.0328 0
1821 1822 2022 0.0328 0
1822 2023 2022 0.0328 0
1822 1823 2024 0.0328 0
1822 2024 2023 0.0328 0
1823 1824 2024 0.0328 0
1824 2025 2024 0.0328 0
1824 1825 2026 0.0328 0
1824 2026 2025 0.0328 0
1825 1826 2026 0.0328 0
1826 2027 2026 0.0328 0
1826 1827 2028 0.0328 0
1826 2028 2027 0.0328 0
1827 1828 2028 0.0328 0
1828 2029 2028 0.0328 0
1828 1829 2030 0.0328 0
1828 2030 2029 0.0328 0
1829 1830 2030 0.0328 0
1830 2031 2030 0.0328 0
1830 1831 2032 0.0328 0
1830 2032 2031 0.0328 0
1831 1832 2032 0.0328 0
1832 2033 2032 0.0328 0
1832 1833 2034 0.0328 0
1832 2034 2033 0.0328 0
1833 1834 2034 0.0328 0
1834 2035 2034 0.0328 0
1834 1835 2036 0.0328 0
1834 2036 2035 0.0328 0
1835 1836 2036 0.0328 0
1836 2037 2036 0.0328 0
1836 1837 2038 0.0328 0
1836 2038 2037 0.0328 0
1837 1838 2038 0.0328 0
1838 2039 2038 0.0328 0
1838 1839 2040 0.0328 0
1838 2040 2039 0.0328 0
1839 1840 2040 0.0328 0
1840 2041 2040 0.0328 0
1840 1841 2042 0.0328 0
1840 2042 2041 0.0328 0
1841 1842 2042 0.0328 0
1842 2043 2042 0.0328 0
1842 1843 2044 0.0328 0
1842 2044 2043 0.0328 0
1843 1844 2044 0.0328 0
1844 2045 2044 0.0328 0
1844 1845 2046 0.0328 0
1844 2046 2045 0.0328 0
1845 1846 2046 0.0328 0
1846 2047 2046 0.0328 0
1846 1847 2048 0.0328 0
1846 2048 2047 0.0328 0
1847 1848 2048 0.0328 0
1848 2049 2048 0.0328 0
1848 1849 2050 0.0328 0
1848 2050 2049 0.0328 0
1849 1850 2050 0.0328 0
1850 2051 2050 0.0328 0
1850 1851 2052 0.0328 0
1850 2052 2051 0.0328 0
1851 1852 2052 0.0328 0
1852 2053 2052 0.0328 0
1852 1853 2054 0.0328 0
1852 2054 2053 0.0328 0
1853 1854 2054 0.0328 0
1854 2055 2054 0.0328 0
1854 1855 2056 0.0328 0
1854 2056 2055 0.0328 0
1855 1856 2056 0.0328 0
1856 2057 2056 0.0328 0
1856 1857 2058 0.0328 0
1856 2058 2057 0.0328 0
1857 1858 2058 0.0328 0
1858 2059 2058 0.0328 0
1858 1859 2060 0.0328 0
1858 2060 2059 0.0328 0
1859 1860 2060 0.0328 0
1860 2061 2060 0.0328 0
1860 1861 2062 0.0328 0
1860 2062 2061 0.0328 0
1861 1862 2062 0.0328 0
1862 2063 2062 0.0328 0
1862 1863 2064 0.0328 0
1862 2064 2063 0.0328 0
1863 1864 2064 0.0328 0
1864 2065 2064 0.0328 0
1864 1865 2066 0.0328 0
1864 2066 2065 0.0328 0
1865 1866 2066 0.0328 0
1866 2067 2066 0.0328 0
1866 1867 2068 0.0328 0
1866 2068 2067 0.0328 0
1867 1868 2068 0.0328 0
1868 2069 2068 0.0328 0
1868 1869 2070 0.0328 0
1868 2070 2069 0.0328 0
1869 1870 2070 0.0328 0
1870 2071 2070 0.0328 0
1870 1871 2072 0.0328 0
1870 2072 2071 0.0328 0
1871 1872 2072 0.0328 0
1872 2073 2072 0.0328 0
1872 1873 2074 0.0328 0
1872 2074 2073 0.0328 0
1873 1874 2074 0.0328 0
1874 2075 2074 0.0328 0
1874 1875 2076 0.0328 0
1874 2076 2075 0.0328 0
1875 1876 2076 0.0328 0
1876 2077 2076 0.0328 0
1876 1877 2078 0.0328 0
1876 2078 2077 0.0328 0
1877 1878 2078 0.0328 0
1878 2079 2078 0.0328 0
1878 1879 2080 0.0328 0
1878 2080 2079 0.0328 0
1879 1880 2080 0.0328 0
1880 2081 2080 0.0328 0
1880 1881 2082 0.0328 0
1880 2082 2081 0.0328 0
1881 1882 2082 0.0328 0
1882 2083 2082 0.0328 0
1882 1883 2084 0.0328 0
1882 2084 2083 0.0328 0
1883 1884 2084 0.0328 0
1884 2085 2084 0.0328 0
1884 1885 2086 0.0328 0
1884 2086 2085 0.0328 0
1885 1886 2086 0.0328 0
1886 2087 2086 0.0328 0
1886 1887 2088 0.0328 0
1886 2088 2087 0.0328 0
1887 1888 2088 0.0328 0
1888 2089 2088 0.0328 0
1888 1889 2090 0.0328 0
1888 2090 2089 0.0328 0
1889 1890 2090 0.0328 0
1890 2091 2090 0.0328 0
1890 1891 2092 0.0328 0
1890 2092 2091 0.0328 0
1891 1892 2092 0.0328 0
1892 2093 2092 0.0328 0
1892 1893 2094 0.0328 0
1892 2094 2093 0.0328 0
1893 1894 2094 0.0328 0
1894 2095 2094 0.0328 0
1894 1895 2096 0.0328 0
1894 2096 2095 0.0328 0
1895 1896 2096 0.0328 0
1896 2097 2096 0.0328 0
1896 1897 2098 0.0328 0
1896 2098 2097 0.0328 0
1897 1898 2098 0.0328 0
1898 2099 2098 0.0328 0
1898 1899 2100 0.0328 0
1898 2100 2099 0.0328 0
1899 1900 2100 0.0328 0
1900 2101 2100 0.0328 0
1900 1901 2102 0.0328 0
1900 2102 2101 0.0328 0
1901 1902 2102 0.0328 0
1902 2103 2102 0.0328 0
1902 1903 2104 0.0328 0
1902 2104 2103 0.0328 0
1903 1904 2104 0.0328 0
1904 2105 2104 0.0328 0
1904 1905 2106 0.0328 0
1904 2106 2105 0.0328 0
1905 1906 2106 0.0328 0
1906 2107 2106 0.0328 0
1906 1907 2108 0.0328 0
1906 2108 2107 0.0328 0
1907 1908 2108 0.0328 0
1908 2109 2108 0.0328 0
1908 1909 2110 0.0328 0
1908 2110 2109 0.0328 0
1909 1910 2110 0.0328 0
1910 2111 2110 0.0328 0
1910 1911 2112 0.0328 0
1910 2112 2111 0.0328 0
1911 1912 2112 0.0328 0
1912 2113 2112 0.0328 0
1912 1913 2114 0.0328 0
1912 2114 2113 0.0328 0
1913 1914 2114 0.0328 0
1914 2115 2114 0.0328 0
1914 1915 2116 0.0328 0
1914 2116 2115 0.0328 0
1915 1916 2116 0.0328 0
1916 2117 2116 0.0328 0
1916 1917 2118 0.0328 0
1916 2118 2117 0.0328 0
1917 1918 2118 0.0328 0
1918 2119 2118 0.0328 0
1918 1919 2120 0.0328 0
1918 2120 2119 0.0328 0
1919 1920 2120 0.0328 0
1920 2121 2120 0.0328 0
1920 1921 2122 0.0328 0
1920 2122 2121 0.0328 0
1921 1922 2122 0.0328 0
1922 2123 2122 0.0328 0
1922 1923 2124 0.0328 0
1922 2124 2123 0.0328 0
1923 1924 2124 0.0328 0
1924 2125 2124 0.0328 0
1924 1925 2126 0.0328 0
1924 2126 2125 0.0328 0
1925 1926 2126 0.0328 0
1926 2127 2126 0.0328 0
1926 1927 2128 0.0328 0
1926 2128 2127 0.0328 0
1927 1928 2128 0.0328 0
1928 2129 2128 0.0328 0
1928 1929 2130 0.0328 0
1928 2130 2129 0.0328 0
1929 1930 2130 0.0328 0
1930 2131 2130 0.0328 0
1930 1931 2132 0.0328 0
1930 2132 2131 0.0328 0
1931 1932 2132 0.0328 0
1932 2133 2132 0.0328 0
1932 1933 2134 0.0328 0
1932 2134 2133 0.0328 0
1933 1934 2134 0.0328 0
1934 2135 2134 0.0328 0
1934 1935 2136 0.0328 0
1934 2136 2135 0.0328 0
1935 1936 2136 0.0328 0
1936 2137 2136 0.0328 0
1936 1937 2138 0.0328 0
1936 2138 2137 0.0328 0
1937 1938 2138 0.0328 0
1938 2139 2138 0.0328 0
1938 1939 2140 0.0328 0
1938 2140 2139 0.0328 0
1939 1940 2140 0.0328 0
1940 2141 2140 0.0328 0
1940 1941 2142 0.0328 0
1940 2142 2141 0.0328 0
1941 1942 2142 0.0328 0
1942 2143 2142 0.0328 0
1942 1943 2144 0.0328 0
1942 2144 2143 0.0328 0
1943 1944 2144 0.0328 0
1944 2145 2144 0.0328 0
1944 1945 2146 0.0328 0
1944 2146 2145 0.0328 0
1945 1946 2146 0.0328 0
1946 2147 2146 0.0328 0
1946 1947 2148 0.0328 0.00572081
1946 2148 2147 0.0328 0.00300012
1947 1948 2148 0.0328 0.0111822
1948 2149 2148 0.0328 0.0139229
1948 1949 2150 0.0328 0.022185
1948 2150 2149 0.0328 0.0194243
1949 1950 2150 0.0328 0.0277262
1950 2151 2150 0.0328 0.0305068
1950 1951 2152 0.0328 0.0388881
1950 2152 2151 0.0328 0.0360877
1951 1952 2152 0.0328 0.0445086
1952 2153 2152 0.0328 0.0473287
1952 1953 2154 0.0328 0.0558282
1952 2154 2153 0.0328 0.0529885
1953 1954 2154 0.0328 0.0615273
1954 2155 2154 0.0328 0.0643866
1954 1955 2156 0.0328 0.0730034
1954 2156 2155 0.0328 0.0701246
1955 1956 2156 0.0328 0.0787803
1956 2157 2156 0.0328 0.0816785
1956 1957 2158 0.0328 0.0904115
1956 2158 2157 0.0328 0.087494
1957 1958 2158 0.0328 0.0962655
1958 2159 2158 0.0328 0.0992021
1958 1959 2160 0.0328 0.10805
1958 2160 2159 0.0328 0.105094
1959 1960 2160 0.0328 0.11398
1960 2161 2160 0.0328 0.116955
1960 1961 2162 0.0328 0.125917
1960 2162 2161 0.0328 0.122923
1961 1962 2162 0.0328 0.131923
1962 2163 2162 0.0328 0.134935
1962 1963 2164 0.0328 0.144009
1962 2164 2163 0.0328 0.140978
1963 1964 2164 0.0328 0.15009
1964 2165 2164 0.0328 0.153139
1964 1965 2166 0.0328 0.162324
1964 2166 2165 0.0328 0.159256
1965 1966 2166 0.0328 0.168478
1966 2167 2166 0.0328 0.171564
1966 1967 2168 0.0328 0.180859
1966 2168 2167 0.0328 0.177755
1967 1968 2168 0.0328 0.187086
1968 2169 2168 0.0328 0.190208
1968 1969 2170 0.0328 0.199611
1968 2170 2169 0.0328 0.196471
1969 1970 2170 0.0328 0.205909
1970 2171 2170 0.0328 0.209068
1970 1971 2172 0.0328 0.218577
1970 2172 2171 0.0328 0.215401
1971 1972 2172 0.0328 0.224946
1972 2173 2172 0.0328 0.228139
1972 1973 2174 0.0328 0.237753
1972 2174 2173 0.0328 0.234542
1973 1974 2174 0.0328 0.244191
1974 2175 2174 0.0328 0.247419
1974 1975 2176 0.0328 0.257136
1974 2176 2175 0.0328 0.253891
1975 1976 2176 0.0328 0.263642
1976 2177 2176 0.0328 0.266904
1976 1977 2178 0.0328 0.276722
1976 2178 2177 0.0328 0.273444
1977 1978 2178 0.0328 0.283295
1978 2179 2178 0.0328 0.28659
1978 1979 2180 0.0328 0.296508
1978 2180 2179 0.0328 0.293196
1979 1980 2180 0.0328 0.303146
1980 2181 2180 0.0328 0.306474
1980 1981 2182 0.0328 0.316489
1980 2182 2181 0.0328 0.313145
1981 1982 2182 0.0328 0.323192
1982 2183 2182 0.0328 0.326552
1982 1983 2184 0.0328 0.336662
1982 2184 2183 0.0328 0.333286
1983 1984 2184 0.0328 0.343428
1984 2185 2184 0.0328 0.346818
1984 1985 2186 0.0328 0.357022
1984 2186 2185 0.0328 0.353615
1985 1986 2186 0.0328 0.363849
1986 2187 2186 0.0328 0.36727
1986 1987 2188 0.0328 0.377565
1986 2188 2187 0.0328 0.374128
1987 1988 2188 0.0328 0.384452
1988 2189 2188 0.0328 0.387903
1988 1989 2190 0.0328 0.398286
1988 2190 2189 0.0328 0.39482
1989 1990 2190 0.0328 0.405232
1990 2191 2190 0.0328 0.408712
1990 1991 2192 0.0328 0.419181
1990 2192 2191 0.0328 0.415687
1991 1992 2192 0.0328 0.426184
1992 2193 2192 0.0328 0.429692
1992 1993 2194 0.0328 0.440245
1992 2194 2193 0.0328 0.436723
1993 1994 2194 0.0328 0.447304
1994 2195 2194 0.0328 0.450839
1994 1995 2196 0.0328 0.461474
1994 2196 2195 0.0328 0.457925
1995 1996 2196 0.0328 0.468586
1996 2197 2196 0.0328 0.472148
1996 1997 2198 0.0328 0.482861
1996 2198 2197 0.0328 0.479286
1997 1998 2198 0.0328 0.490025
1998 2199 2198 0.0328 0.493613
1998 1999 2200 0.0328 0.504403
1998 2200 2199 0.0328 0.500802
1999 2000 2200 0.0328 0.511617
2000 2201 2200 0.0328 0.51523
2000 2001 2202 0.0328 0.526093
2000 2202 2201 0.0328 0.522468
2001 2002 2202 0.0328 0.533355
2002 2203 2202 0.0328 0.536992
2002 2003 2204 0.0328 0.547926
2002 2204 2203 0.0328 0.544278
2003 2004 2204 0.0328 0.555235
2004 2205 2204 0.0328 0.558895
2004 2005 2206 0.0328 0.569898
2004 2206 2205 0.0328 0.566226
2005 2006 2206 0.0328 0.577251
2006 2207 2206 0.0328 0.580933
2006 2007 2208 0.0328 0.592001
2006 2208 2207 0.0328 0.588308
2007 2008 2208 0.0328 0.599397
2008 2209 2208 0.0328 0.6031
2008 2009 2210 0.0328 0.61423
2008 2210 2209 0.0328 0.610517

[2D_BOUNDARY_CONDITIONS]
;;TRI  EDGE TYPE            PARAM_1
1    1    SPECIFIED_FLOW   -2
400    1    SPECIFIED_FLOW   -2
801    1    SPECIFIED_FLOW   -2
1200    1    SPECIFIED_FLOW   -2
1601    1    SPECIFIED_FLOW   -2
2000    1    SPECIFIED_FLOW   -2
2401    1    SPECIFIED_FLOW   -2
2800    1    SPECIFIED_FLOW   -2
3201    1    SPECIFIED_FLOW   -2
3600    1    SPECIFIED_FLOW   -2
399    2    SPECIFIED_STAGE  0.617944
798    0    SPECIFIED_STAGE  0.617944
1199    2    SPECIFIED_STAGE  0.617944
1598    0    SPECIFIED_STAGE  0.617944
1999    2    SPECIFIED_STAGE  0.617944
2398    0    SPECIFIED_STAGE  0.617944
2799    2    SPECIFIED_STAGE  0.617944
3198    0    SPECIFIED_STAGE  0.617944
3599    2    SPECIFIED_STAGE  0.617944
3998    0    SPECIFIED_STAGE  0.617944

