; SWASHES bump-transcritical — Transcritical flow without shock (SWASHES 3.1.4)
; generated by swasheslib.gen1d for solver 1d-fv; nx=25 dx=1 W=1.0 n=1e-08

[TITLE]
SWASHES bump-transcritical / 1d-fv

[OPTIONS]
FLOW_UNITS             CMS
FLOW_ROUTING           FV
START_DATE             01/01/2026
START_TIME             00:00:00
REPORT_START_DATE      01/01/2026
REPORT_START_TIME      00:00:00
END_DATE               01/01/2026
END_TIME               0:30:00
ROUTING_STEP           0.05
REPORT_STEP            0:00:10
WET_STEP               0:00:10
DRY_STEP               0:00:10
INERTIAL_DAMPING       NONE
NODE_CONTINUITY        EXPLICIT
NORMAL_FLOW_LIMITED    SLOPE
VARIABLE_STEP          0
LENGTHENING_STEP       0
MIN_SURFAREA           0.01
MAX_TRIALS             32
HEAD_TOLERANCE         1e-6
SURCHARGE_METHOD       EXTRAN
MIN_SLOPE              0
ALLOW_PONDING          NO
SKIP_STEADY_STATE      NO
INFILTRATION           HORTON
LINK_OFFSETS           DEPTH
FV_MIN_CELLS           1

[JUNCTIONS]
;;Name           InvertElev  MaxDepth  InitDepth  SurDepth  Aponded
N0000            0.000000    3.243     0.660000   0         0
N0001            0.000000    3.243     0.660000   0         0
N0002            0.000000    3.243     0.660000   0         0
N0003            0.000000    3.243     0.660000   0         0
N0004            0.000000    3.243     0.660000   0         0
N0005            0.000000    3.243     0.660000   0         0
N0006            0.000000    3.243     0.660000   0         0
N0007            0.000000    3.243     0.660000   0         0
N0008            0.000000    3.243     0.660000   0         0
N0009            0.150000    3.243     0.510000   0         0
N0010            0.200000    3.243     0.460000   0         0
N0011            0.150000    3.243     0.510000   0         0
N0012            0.000000    3.243     0.660000   0         0
N0013            0.000000    3.243     0.660000   0         0
N0014            0.000000    3.243     0.660000   0         0
N0015            0.000000    3.243     0.660000   0         0
N0016            0.000000    3.243     0.660000   0         0
N0017            0.000000    3.243     0.660000   0         0
N0018            0.000000    3.243     0.660000   0         0
N0019            0.000000    3.243     0.660000   0         0
N0020            0.000000    3.243     0.660000   0         0
N0021            0.000000    3.243     0.660000   0         0
N0022            0.000000    3.243     0.660000   0         0
N0023            0.000000    3.243     0.660000   0         0
N0024            0.000000    3.243     0.660000   0         0

[OUTFALLS]
;;Name           InvertElev  Type   StageData  Gated
N0025            0.000000    FREE              NO

[CONDUITS]
;;Name           FromNode         ToNode           Length     Roughness  InOffset  OutOffset  InitFlow  MaxFlow
C0000            N0000            N0001            1.000000   1e-08      0         0          0.0000    0
C0001            N0001            N0002            1.000000   1e-08      0         0          0.0000    0
C0002            N0002            N0003            1.000000   1e-08      0         0          0.0000    0
C0003            N0003            N0004            1.000000   1e-08      0         0          0.0000    0
C0004            N0004            N0005            1.000000   1e-08      0         0          0.0000    0
C0005            N0005            N0006            1.000000   1e-08      0         0          0.0000    0
C0006            N0006            N0007            1.000000   1e-08      0         0          0.0000    0
C0007            N0007            N0008            1.000000   1e-08      0         0          0.0000    0
C0008            N0008            N0009            1.000000   1e-08      0         0          0.0000    0
C0009            N0009            N0010            1.000000   1e-08      0         0          0.0000    0
C0010            N0010            N0011            1.000000   1e-08      0         0          0.0000    0
C0011            N0011            N0012            1.000000   1e-08      0         0          0.0000    0
C0012            N0012            N0013            1.000000   1e-08      0         0          0.0000    0
C0013            N0013            N0014            1.000000   1e-08      0         0          0.0000    0
C0014            N0014            N0015            1.000000   1e-08      0         0          0.0000    0
C0015            N0015            N0016            1.000000   1e-08      0         0          0.0000    0
C0016            N0016            N0017            1.000000   1e-08      0         0          0.0000    0
C0017            N0017            N0018            1.000000   1e-08      0         0          0.0000    0
C0018            N0018            N0019            1.000000   1e-08      0         0          0.0000    0
C0019            N0019            N0020            1.000000   1e-08      0         0          0.0000    0
C0020            N0020            N0021            1.000000   1e-08      0         0          0.0000    0
C0021            N0021            N0022            1.000000   1e-08      0         0          0.0000    0
C0022            N0022            N0023            1.000000   1e-08      0         0          0.0000    0
C0023            N0023            N0024            1.000000   1e-08      0         0          0.0000    0
C0024            N0024            N0025            1.000000   1e-08      0         0          0.0000    0

[XSECTIONS]
;;Link           Shape        Geom1     Geom2     Geom3  Geom4  Barrels
C0000            RECT_OPEN    3.243     1.000     0      0      1
C0001            RECT_OPEN    3.243     1.000     0      0      1
C0002            RECT_OPEN    3.243     1.000     0      0      1
C0003            RECT_OPEN    3.243     1.000     0      0      1
C0004            RECT_OPEN    3.243     1.000     0      0      1
C0005            RECT_OPEN    3.243     1.000     0      0      1
C0006            RECT_OPEN    3.243     1.000     0      0      1
C0007            RECT_OPEN    3.243     1.000     0      0      1
C0008            RECT_OPEN    3.243     1.000     0      0      1
C0009            RECT_OPEN    3.243     1.000     0      0      1
C0010            RECT_OPEN    3.243     1.000     0      0      1
C0011            RECT_OPEN    3.243     1.000     0      0      1
C0012            RECT_OPEN    3.243     1.000     0      0      1
C0013            RECT_OPEN    3.243     1.000     0      0      1
C0014            RECT_OPEN    3.243     1.000     0      0      1
C0015            RECT_OPEN    3.243     1.000     0      0      1
C0016            RECT_OPEN    3.243     1.000     0      0      1
C0017            RECT_OPEN    3.243     1.000     0      0      1
C0018            RECT_OPEN    3.243     1.000     0      0      1
C0019            RECT_OPEN    3.243     1.000     0      0      1
C0020            RECT_OPEN    3.243     1.000     0      0      1
C0021            RECT_OPEN    3.243     1.000     0      0      1
C0022            RECT_OPEN    3.243     1.000     0      0      1
C0023            RECT_OPEN    3.243     1.000     0      0      1
C0024            RECT_OPEN    3.243     1.000     0      0      1

[INFLOWS]
;;Node           Constituent  TimeSeries  Type  Mfactor  Sfactor  Baseline  Pattern
N0000            FLOW         ""          FLOW  1.0      1.0      1.530000 

[REPORT]
INPUT      NO
CONTINUITY YES
FLOWSTATS  YES
NODES ALL
LINKS ALL

