; SWASHES stoker-wet-dam-break — Stoker dam break on a wet domain (SWASHES 4.1.1)
; generated by swasheslib.gen1d for solver 1d-fv; nx=200 dx=0.05 W=1.0 n=1e-08

[TITLE]
SWASHES stoker-wet-dam-break / 1d-fv

[OPTIONS]
FLOW_UNITS             CMS
FLOW_ROUTING           FV
START_DATE             01/01/2026
START_TIME             00:00:00
REPORT_START_DATE      01/01/2026
REPORT_START_TIME      00:00:00
END_DATE               01/01/2026
END_TIME               0:00:06
ROUTING_STEP           0.01
REPORT_STEP            0:00:01
WET_STEP               0:00:01
DRY_STEP               0:00:01
INERTIAL_DAMPING       NONE
NODE_CONTINUITY        EXPLICIT
NORMAL_FLOW_LIMITED    SLOPE
VARIABLE_STEP          0
LENGTHENING_STEP       0
MIN_SURFAREA           0.01
MAX_TRIALS             32
HEAD_TOLERANCE         1e-6
SURCHARGE_METHOD       EXTRAN
MIN_SLOPE              0
ALLOW_PONDING          NO
SKIP_STEADY_STATE      NO
INFILTRATION           HORTON
LINK_OFFSETS           DEPTH
FV_MIN_CELLS           1

[JUNCTIONS]
;;Name           InvertElev  MaxDepth  InitDepth  SurDepth  Aponded
N0000            0.000000    0.015     0.005000   0         0
N0001            0.000000    0.015     0.005000   0         0
N0002            0.000000    0.015     0.005000   0         0
N0003            0.000000    0.015     0.005000   0         0
N0004            0.000000    0.015     0.005000   0         0
N0005            0.000000    0.015     0.005000   0         0
N0006            0.000000    0.015     0.005000   0         0
N0007            0.000000    0.015     0.005000   0         0
N0008            0.000000    0.015     0.005000   0         0
N0009            0.000000    0.015     0.005000   0         0
N0010            0.000000    0.015     0.005000   0         0
N0011            0.000000    0.015     0.005000   0         0
N0012            0.000000    0.015     0.005000   0         0
N0013            0.000000    0.015     0.005000   0         0
N0014            0.000000    0.015     0.005000   0         0
N0015            0.000000    0.015     0.005000   0         0
N0016            0.000000    0.015     0.005000   0         0
N0017            0.000000    0.015     0.005000   0         0
N0018            0.000000    0.015     0.005000   0         0
N0019            0.000000    0.015     0.005000   0         0
N0020            0.000000    0.015     0.005000   0         0
N0021            0.000000    0.015     0.005000   0         0
N0022            0.000000    0.015     0.005000   0         0
N0023            0.000000    0.015     0.005000   0         0
N0024            0.000000    0.015     0.005000   0         0
N0025            0.000000    0.015     0.005000   0         0
N0026            0.000000    0.015     0.005000   0         0
N0027            0.000000    0.015     0.005000   0         0
N0028            0.000000    0.015     0.005000   0         0
N0029            0.000000    0.015     0.005000   0         0
N0030            0.000000    0.015     0.005000   0         0
N0031            0.000000    0.015     0.005000   0         0
N0032            0.000000    0.015     0.005000   0         0
N0033            0.000000    0.015     0.005000   0         0
N0034            0.000000    0.015     0.005000   0         0
N0035            0.000000    0.015     0.005000   0         0
N0036            0.000000    0.015     0.005000   0         0
N0037            0.000000    0.015     0.005000   0         0
N0038            0.000000    0.015     0.005000   0         0
N0039            0.000000    0.015     0.005000   0         0
N0040            0.000000    0.015     0.005000   0         0
N0041            0.000000    0.015     0.005000   0         0
N0042            0.000000    0.015     0.005000   0         0
N0043            0.000000    0.015     0.005000   0         0
N0044            0.000000    0.015     0.005000   0         0
N0045            0.000000    0.015     0.005000   0         0
N0046            0.000000    0.015     0.005000   0         0
N0047            0.000000    0.015     0.005000   0         0
N0048            0.000000    0.015     0.005000   0         0
N0049            0.000000    0.015     0.005000   0         0
N0050            0.000000    0.015     0.005000   0         0
N0051            0.000000    0.015     0.005000   0         0
N0052            0.000000    0.015     0.005000   0         0
N0053            0.000000    0.015     0.005000   0         0
N0054            0.000000    0.015     0.005000   0         0
N0055            0.000000    0.015     0.005000   0         0
N0056            0.000000    0.015     0.005000   0         0
N0057            0.000000    0.015     0.005000   0         0
N0058            0.000000    0.015     0.005000   0         0
N0059            0.000000    0.015     0.005000   0         0
N0060            0.000000    0.015     0.005000   0         0
N0061            0.000000    0.015     0.005000   0         0
N0062            0.000000    0.015     0.005000   0         0
N0063            0.000000    0.015     0.005000   0         0
N0064            0.000000    0.015     0.005000   0         0
N0065            0.000000    0.015     0.005000   0         0
N0066            0.000000    0.015     0.005000   0         0
N0067            0.000000    0.015     0.005000   0         0
N0068            0.000000    0.015     0.005000   0         0
N0069            0.000000    0.015     0.005000   0         0
N0070            0.000000    0.015     0.005000   0         0
N0071            0.000000    0.015     0.005000   0         0
N0072            0.000000    0.015     0.005000   0         0
N0073            0.000000    0.015     0.005000   0         0
N0074            0.000000    0.015     0.005000   0         0
N0075            0.000000    0.015     0.005000   0         0
N0076            0.000000    0.015     0.005000   0         0
N0077            0.000000    0.015     0.005000   0         0
N0078            0.000000    0.015     0.005000   0         0
N0079            0.000000    0.015     0.005000   0         0
N0080            0.000000    0.015     0.005000   0         0
N0081            0.000000    0.015     0.005000   0         0
N0082            0.000000    0.015     0.005000   0         0
N0083            0.000000    0.015     0.005000   0         0
N0084            0.000000    0.015     0.005000   0         0
N0085            0.000000    0.015     0.005000   0         0
N0086            0.000000    0.015     0.005000   0         0
N0087            0.000000    0.015     0.005000   0         0
N0088            0.000000    0.015     0.005000   0         0
N0089            0.000000    0.015     0.005000   0         0
N0090            0.000000    0.015     0.005000   0         0
N0091            0.000000    0.015     0.005000   0         0
N0092            0.000000    0.015     0.005000   0         0
N0093            0.000000    0.015     0.005000   0         0
N0094            0.000000    0.015     0.005000   0         0
N0095            0.000000    0.015     0.005000   0         0
N0096            0.000000    0.015     0.005000   0         0
N0097            0.000000    0.015     0.005000   0         0
N0098            0.000000    0.015     0.005000   0         0
N0099            0.000000    0.015     0.005000   0         0
N0100            0.000000    0.015     0.005000   0         0
N0101            0.000000    0.015     0.001000   0         0
N0102            0.000000    0.015     0.001000   0         0
N0103            0.000000    0.015     0.001000   0         0
N0104            0.000000    0.015     0.001000   0         0
N0105            0.000000    0.015     0.001000   0         0
N0106            0.000000    0.015     0.001000   0         0
N0107            0.000000    0.015     0.001000   0         0
N0108            0.000000    0.015     0.001000   0         0
N0109            0.000000    0.015     0.001000   0         0
N0110            0.000000    0.015     0.001000   0         0
N0111            0.000000    0.015     0.001000   0         0
N0112            0.000000    0.015     0.001000   0         0
N0113            0.000000    0.015     0.001000   0         0
N0114            0.000000    0.015     0.001000   0         0
N0115            0.000000    0.015     0.001000   0         0
N0116            0.000000    0.015     0.001000   0         0
N0117            0.000000    0.015     0.001000   0         0
N0118            0.000000    0.015     0.001000   0         0
N0119            0.000000    0.015     0.001000   0         0
N0120            0.000000    0.015     0.001000   0         0
N0121            0.000000    0.015     0.001000   0         0
N0122            0.000000    0.015     0.001000   0         0
N0123            0.000000    0.015     0.001000   0         0
N0124            0.000000    0.015     0.001000   0         0
N0125            0.000000    0.015     0.001000   0         0
N0126            0.000000    0.015     0.001000   0         0
N0127            0.000000    0.015     0.001000   0         0
N0128            0.000000    0.015     0.001000   0         0
N0129            0.000000    0.015     0.001000   0         0
N0130            0.000000    0.015     0.001000   0         0
N0131            0.000000    0.015     0.001000   0         0
N0132            0.000000    0.015     0.001000   0         0
N0133            0.000000    0.015     0.001000   0         0
N0134            0.000000    0.015     0.001000   0         0
N0135            0.000000    0.015     0.001000   0         0
N0136            0.000000    0.015     0.001000   0         0
N0137            0.000000    0.015     0.001000   0         0
N0138            0.000000    0.015     0.001000   0         0
N0139            0.000000    0.015     0.001000   0         0
N0140            0.000000    0.015     0.001000   0         0
N0141            0.000000    0.015     0.001000   0         0
N0142            0.000000    0.015     0.001000   0         0
N0143            0.000000    0.015     0.001000   0         0
N0144            0.000000    0.015     0.001000   0         0
N0145            0.000000    0.015     0.001000   0         0
N0146            0.000000    0.015     0.001000   0         0
N0147            0.000000    0.015     0.001000   0         0
N0148            0.000000    0.015     0.001000   0         0
N0149            0.000000    0.015     0.001000   0         0
N0150            0.000000    0.015     0.001000   0         0
N0151            0.000000    0.015     0.001000   0         0
N0152            0.000000    0.015     0.001000   0         0
N0153            0.000000    0.015     0.001000   0         0
N0154            0.000000    0.015     0.001000   0         0
N0155            0.000000    0.015     0.001000   0         0
N0156            0.000000    0.015     0.001000   0         0
N0157            0.000000    0.015     0.001000   0         0
N0158            0.000000    0.015     0.001000   0         0
N0159            0.000000    0.015     0.001000   0         0
N0160            0.000000    0.015     0.001000   0         0
N0161            0.000000    0.015     0.001000   0         0
N0162            0.000000    0.015     0.001000   0         0
N0163            0.000000    0.015     0.001000   0         0
N0164            0.000000    0.015     0.001000   0         0
N0165            0.000000    0.015     0.001000   0         0
N0166            0.000000    0.015     0.001000   0         0
N0167            0.000000    0.015     0.001000   0         0
N0168            0.000000    0.015     0.001000   0         0
N0169            0.000000    0.015     0.001000   0         0
N0170            0.000000    0.015     0.001000   0         0
N0171            0.000000    0.015     0.001000   0         0
N0172            0.000000    0.015     0.001000   0         0
N0173            0.000000    0.015     0.001000   0         0
N0174            0.000000    0.015     0.001000   0         0
N0175            0.000000    0.015     0.001000   0         0
N0176            0.000000    0.015     0.001000   0         0
N0177            0.000000    0.015     0.001000   0         0
N0178            0.000000    0.015     0.001000   0         0
N0179            0.000000    0.015     0.001000   0         0
N0180            0.000000    0.015     0.001000   0         0
N0181            0.000000    0.015     0.001000   0         0
N0182            0.000000    0.015     0.001000   0         0
N0183            0.000000    0.015     0.001000   0         0
N0184            0.000000    0.015     0.001000   0         0
N0185            0.000000    0.015     0.001000   0         0
N0186            0.000000    0.015     0.001000   0         0
N0187            0.000000    0.015     0.001000   0         0
N0188            0.000000    0.015     0.001000   0         0
N0189            0.000000    0.015     0.001000   0         0
N0190            0.000000    0.015     0.001000   0         0
N0191            0.000000    0.015     0.001000   0         0
N0192            0.000000    0.015     0.001000   0         0
N0193            0.000000    0.015     0.001000   0         0
N0194            0.000000    0.015     0.001000   0         0
N0195            0.000000    0.015     0.001000   0         0
N0196            0.000000    0.015     0.001000   0         0
N0197            0.000000    0.015     0.001000   0         0
N0198            0.000000    0.015     0.001000   0         0
N0199            0.000000    0.015     0.001000   0         0
N0200            0.000000    0.015     0.001000   0         0

[OUTFALLS]
;;Name           InvertElev  Type   StageData  Gated
OUTF             0.000000    FREE              YES

[CONDUITS]
;;Name           FromNode         ToNode           Length     Roughness  InOffset  OutOffset  InitFlow  MaxFlow
C0000            N0000            N0001            0.050000   1e-08      0         0          0.0000    0
C0001            N0001            N0002            0.050000   1e-08      0         0          0.0000    0
C0002            N0002            N0003            0.050000   1e-08      0         0          0.0000    0
C0003            N0003            N0004            0.050000   1e-08      0         0          0.0000    0
C0004            N0004            N0005            0.050000   1e-08      0         0          0.0000    0
C0005            N0005            N0006            0.050000   1e-08      0         0          0.0000    0
C0006            N0006            N0007            0.050000   1e-08      0         0          0.0000    0
C0007            N0007            N0008            0.050000   1e-08      0         0          0.0000    0
C0008            N0008            N0009            0.050000   1e-08      0         0          0.0000    0
C0009            N0009            N0010            0.050000   1e-08      0         0          0.0000    0
C0010            N0010            N0011            0.050000   1e-08      0         0          0.0000    0
C0011            N0011            N0012            0.050000   1e-08      0         0          0.0000    0
C0012            N0012            N0013            0.050000   1e-08      0         0          0.0000    0
C0013            N0013            N0014            0.050000   1e-08      0         0          0.0000    0
C0014            N0014            N0015            0.050000   1e-08      0         0          0.0000    0
C0015            N0015            N0016            0.050000   1e-08      0         0          0.0000    0
C0016            N0016            N0017            0.050000   1e-08      0         0          0.0000    0
C0017            N0017            N0018            0.050000   1e-08      0         0          0.0000    0
C0018            N0018            N0019            0.050000   1e-08      0         0          0.0000    0
C0019            N0019            N0020            0.050000   1e-08      0         0          0.0000    0
C0020            N0020            N0021            0.050000   1e-08      0         0          0.0000    0
C0021            N0021            N0022            0.050000   1e-08      0         0          0.0000    0
C0022            N0022            N0023            0.050000   1e-08      0         0          0.0000    0
C0023            N0023            N0024            0.050000   1e-08      0         0          0.0000    0
C0024            N0024            N0025            0.050000   1e-08      0         0          0.0000    0
C0025            N0025            N0026            0.050000   1e-08      0         0          0.0000    0
C0026            N0026            N0027            0.050000   1e-08      0         0          0.0000    0
C0027            N0027            N0028            0.050000   1e-08      0         0          0.0000    0
C0028            N0028            N0029            0.050000   1e-08      0         0          0.0000    0
C0029            N0029            N0030            0.050000   1e-08      0         0          0.0000    0
C0030            N0030            N0031            0.050000   1e-08      0         0          0.0000    0
C0031            N0031            N0032            0.050000   1e-08      0         0          0.0000    0
C0032            N0032            N0033            0.050000   1e-08      0         0          0.0000    0
C0033            N0033            N0034            0.050000   1e-08      0         0          0.0000    0
C0034            N0034            N0035            0.050000   1e-08      0         0          0.0000    0
C0035            N0035            N0036            0.050000   1e-08      0         0          0.0000    0
C0036            N0036            N0037            0.050000   1e-08      0         0          0.0000    0
C0037            N0037            N0038            0.050000   1e-08      0         0          0.0000    0
C0038            N0038            N0039            0.050000   1e-08      0         0          0.0000    0
C0039            N0039            N0040            0.050000   1e-08      0         0          0.0000    0
C0040            N0040            N0041            0.050000   1e-08      0         0          0.0000    0
C0041            N0041            N0042            0.050000   1e-08      0         0          0.0000    0
C0042            N0042            N0043            0.050000   1e-08      0         0          0.0000    0
C0043            N0043            N0044            0.050000   1e-08      0         0          0.0000    0
C0044            N0044            N0045            0.050000   1e-08      0         0          0.0000    0
C0045            N0045            N0046            0.050000   1e-08      0         0          0.0000    0
C0046            N0046            N0047            0.050000   1e-08      0         0          0.0000    0
C0047            N0047            N0048            0.050000   1e-08      0         0          0.0000    0
C0048            N0048            N0049            0.050000   1e-08      0         0          0.0000    0
C0049            N0049            N0050            0.050000   1e-08      0         0          0.0000    0
C0050            N0050            N0051            0.050000   1e-08      0         0          0.0000    0
C0051            N0051            N0052            0.050000   1e-08      0         0          0.0000    0
C0052            N0052            N0053            0.050000   1e-08      0         0          0.0000    0
C0053            N0053            N0054            0.050000   1e-08      0         0          0.0000    0
C0054            N0054            N0055            0.050000   1e-08      0         0          0.0000    0
C0055            N0055            N0056            0.050000   1e-08      0         0          0.0000    0
C0056            N0056            N0057            0.050000   1e-08      0         0          0.0000    0
C0057            N0057            N0058            0.050000   1e-08      0         0          0.0000    0
C0058            N0058            N0059            0.050000   1e-08      0         0          0.0000    0
C0059            N0059            N0060            0.050000   1e-08      0         0          0.0000    0
C0060            N0060            N0061            0.050000   1e-08      0         0          0.0000    0
C0061            N0061            N0062            0.050000   1e-08      0         0          0.0000    0
C0062            N0062            N0063            0.050000   1e-08      0         0          0.0000    0
C0063            N0063            N0064            0.050000   1e-08      0         0          0.0000    0
C0064            N0064            N0065            0.050000   1e-08      0         0          0.0000    0
C0065            N0065            N0066            0.050000   1e-08      0         0          0.0000    0
C0066            N0066            N0067            0.050000   1e-08      0         0          0.0000    0
C0067            N0067            N0068            0.050000   1e-08      0         0          0.0000    0
C0068            N0068            N0069            0.050000   1e-08      0         0          0.0000    0
C0069            N0069            N0070            0.050000   1e-08      0         0          0.0000    0
C0070            N0070            N0071            0.050000   1e-08      0         0          0.0000    0
C0071            N0071            N0072            0.050000   1e-08      0         0          0.0000    0
C0072            N0072            N0073            0.050000   1e-08      0         0          0.0000    0
C0073            N0073            N0074            0.050000   1e-08      0         0          0.0000    0
C0074            N0074            N0075            0.050000   1e-08      0         0          0.0000    0
C0075            N0075            N0076            0.050000   1e-08      0         0          0.0000    0
C0076            N0076            N0077            0.050000   1e-08      0         0          0.0000    0
C0077            N0077            N0078            0.050000   1e-08      0         0          0.0000    0
C0078            N0078            N0079            0.050000   1e-08      0         0          0.0000    0
C0079            N0079            N0080            0.050000   1e-08      0         0          0.0000    0
C0080            N0080            N0081            0.050000   1e-08      0         0          0.0000    0
C0081            N0081            N0082            0.050000   1e-08      0         0          0.0000    0
C0082            N0082            N0083            0.050000   1e-08      0         0          0.0000    0
C0083            N0083            N0084            0.050000   1e-08      0         0          0.0000    0
C0084            N0084            N0085            0.050000   1e-08      0         0          0.0000    0
C0085            N0085            N0086            0.050000   1e-08      0         0          0.0000    0
C0086            N0086            N0087            0.050000   1e-08      0         0          0.0000    0
C0087            N0087            N0088            0.050000   1e-08      0         0          0.0000    0
C0088            N0088            N0089            0.050000   1e-08      0         0          0.0000    0
C0089            N0089            N0090            0.050000   1e-08      0         0          0.0000    0
C0090            N0090            N0091            0.050000   1e-08      0         0          0.0000    0
C0091            N0091            N0092            0.050000   1e-08      0         0          0.0000    0
C0092            N0092            N0093            0.050000   1e-08      0         0          0.0000    0
C0093            N0093            N0094            0.050000   1e-08      0         0          0.0000    0
C0094            N0094            N0095            0.050000   1e-08      0         0          0.0000    0
C0095            N0095            N0096            0.050000   1e-08      0         0          0.0000    0
C0096            N0096            N0097            0.050000   1e-08      0         0          0.0000    0
C0097            N0097            N0098            0.050000   1e-08      0         0          0.0000    0
C0098            N0098            N0099            0.050000   1e-08      0         0          0.0000    0
C0099            N0099            N0100            0.050000   1e-08      0         0          0.0000    0
C0100            N0100            N0101            0.050000   1e-08      0         0          0.0000    0
C0101            N0101            N0102            0.050000   1e-08      0         0          0.0000    0
C0102            N0102            N0103            0.050000   1e-08      0         0          0.0000    0
C0103            N0103            N0104            0.050000   1e-08      0         0          0.0000    0
C0104            N0104            N0105            0.050000   1e-08      0         0          0.0000    0
C0105            N0105            N0106            0.050000   1e-08      0         0          0.0000    0
C0106            N0106            N0107            0.050000   1e-08      0         0          0.0000    0
C0107            N0107            N0108            0.050000   1e-08      0         0          0.0000    0
C0108            N0108            N0109            0.050000   1e-08      0         0          0.0000    0
C0109            N0109            N0110            0.050000   1e-08      0         0          0.0000    0
C0110            N0110            N0111            0.050000   1e-08      0         0          0.0000    0
C0111            N0111            N0112            0.050000   1e-08      0         0          0.0000    0
C0112            N0112            N0113            0.050000   1e-08      0         0          0.0000    0
C0113            N0113            N0114            0.050000   1e-08      0         0          0.0000    0
C0114            N0114            N0115            0.050000   1e-08      0         0          0.0000    0
C0115            N0115            N0116            0.050000   1e-08      0         0          0.0000    0
C0116            N0116            N0117            0.050000   1e-08      0         0          0.0000    0
C0117            N0117            N0118            0.050000   1e-08      0         0          0.0000    0
C0118            N0118            N0119            0.050000   1e-08      0         0          0.0000    0
C0119            N0119            N0120            0.050000   1e-08      0         0          0.0000    0
C0120            N0120            N0121            0.050000   1e-08      0         0          0.0000    0
C0121            N0121            N0122            0.050000   1e-08      0         0          0.0000    0
C0122            N0122            N0123            0.050000   1e-08      0         0          0.0000    0
C0123            N0123            N0124            0.050000   1e-08      0         0          0.0000    0
C0124            N0124            N0125            0.050000   1e-08      0         0          0.0000    0
C0125            N0125            N0126            0.050000   1e-08      0         0          0.0000    0
C0126            N0126            N0127            0.050000   1e-08      0         0          0.0000    0
C0127            N0127            N0128            0.050000   1e-08      0         0          0.0000    0
C0128            N0128            N0129            0.050000   1e-08      0         0          0.0000    0
C0129            N0129            N0130            0.050000   1e-08      0         0          0.0000    0
C0130            N0130            N0131            0.050000   1e-08      0         0          0.0000    0
C0131            N0131            N0132            0.050000   1e-08      0         0          0.0000    0
C0132            N0132            N0133            0.050000   1e-08      0         0          0.0000    0
C0133            N0133            N0134            0.050000   1e-08      0         0          0.0000    0
C0134            N0134            N0135            0.050000   1e-08      0         0          0.0000    0
C0135            N0135            N0136            0.050000   1e-08      0         0          0.0000    0
C0136            N0136            N0137            0.050000   1e-08      0         0          0.0000    0
C0137            N0137            N0138            0.050000   1e-08      0         0          0.0000    0
C0138            N0138            N0139            0.050000   1e-08      0         0          0.0000    0
C0139            N0139            N0140            0.050000   1e-08      0         0          0.0000    0
C0140            N0140            N0141            0.050000   1e-08      0         0          0.0000    0
C0141            N0141            N0142            0.050000   1e-08      0         0          0.0000    0
C0142            N0142            N0143            0.050000   1e-08      0         0          0.0000    0
C0143            N0143            N0144            0.050000   1e-08      0         0          0.0000    0
C0144            N0144            N0145            0.050000   1e-08      0         0          0.0000    0
C0145            N0145            N0146            0.050000   1e-08      0         0          0.0000    0
C0146            N0146            N0147            0.050000   1e-08      0         0          0.0000    0
C0147            N0147            N0148            0.050000   1e-08      0         0          0.0000    0
C0148            N0148            N0149            0.050000   1e-08      0         0          0.0000    0
C0149            N0149            N0150            0.050000   1e-08      0         0          0.0000    0
C0150            N0150            N0151            0.050000   1e-08      0         0          0.0000    0
C0151            N0151            N0152            0.050000   1e-08      0         0          0.0000    0
C0152            N0152            N0153            0.050000   1e-08      0         0          0.0000    0
C0153            N0153            N0154            0.050000   1e-08      0         0          0.0000    0
C0154            N0154            N0155            0.050000   1e-08      0         0          0.0000    0
C0155            N0155            N0156            0.050000   1e-08      0         0          0.0000    0
C0156            N0156            N0157            0.050000   1e-08      0         0          0.0000    0
C0157            N0157            N0158            0.050000   1e-08      0         0          0.0000    0
C0158            N0158            N0159            0.050000   1e-08      0         0          0.0000    0
C0159            N0159            N0160            0.050000   1e-08      0         0          0.0000    0
C0160            N0160            N0161            0.050000   1e-08      0         0          0.0000    0
C0161            N0161            N0162            0.050000   1e-08      0         0          0.0000    0
C0162            N0162            N0163            0.050000   1e-08      0         0          0.0000    0
C0163            N0163            N0164            0.050000   1e-08      0         0          0.0000    0
C0164            N0164            N0165            0.050000   1e-08      0         0          0.0000    0
C0165            N0165            N0166            0.050000   1e-08      0         0          0.0000    0
C0166            N0166            N0167            0.050000   1e-08      0         0          0.0000    0
C0167            N0167            N0168            0.050000   1e-08      0         0          0.0000    0
C0168            N0168            N0169            0.050000   1e-08      0         0          0.0000    0
C0169            N0169            N0170            0.050000   1e-08      0         0          0.0000    0
C0170            N0170            N0171            0.050000   1e-08      0         0          0.0000    0
C0171            N0171            N0172            0.050000   1e-08      0         0          0.0000    0
C0172            N0172            N0173            0.050000   1e-08      0         0          0.0000    0
C0173            N0173            N0174            0.050000   1e-08      0         0          0.0000    0
C0174            N0174            N0175            0.050000   1e-08      0         0          0.0000    0
C0175            N0175            N0176            0.050000   1e-08      0         0          0.0000    0
C0176            N0176            N0177            0.050000   1e-08      0         0          0.0000    0
C0177            N0177            N0178            0.050000   1e-08      0         0          0.0000    0
C0178            N0178            N0179            0.050000   1e-08      0         0          0.0000    0
C0179            N0179            N0180            0.050000   1e-08      0         0          0.0000    0
C0180            N0180            N0181            0.050000   1e-08      0         0          0.0000    0
C0181            N0181            N0182            0.050000   1e-08      0         0          0.0000    0
C0182            N0182            N0183            0.050000   1e-08      0         0          0.0000    0
C0183            N0183            N0184            0.050000   1e-08      0         0          0.0000    0
C0184            N0184            N0185            0.050000   1e-08      0         0          0.0000    0
C0185            N0185            N0186            0.050000   1e-08      0         0          0.0000    0
C0186            N0186            N0187            0.050000   1e-08      0         0          0.0000    0
C0187            N0187            N0188            0.050000   1e-08      0         0          0.0000    0
C0188            N0188            N0189            0.050000   1e-08      0         0          0.0000    0
C0189            N0189            N0190            0.050000   1e-08      0         0          0.0000    0
C0190            N0190            N0191            0.050000   1e-08      0         0          0.0000    0
C0191            N0191            N0192            0.050000   1e-08      0         0          0.0000    0
C0192            N0192            N0193            0.050000   1e-08      0         0          0.0000    0
C0193            N0193            N0194            0.050000   1e-08      0         0          0.0000    0
C0194            N0194            N0195            0.050000   1e-08      0         0          0.0000    0
C0195            N0195            N0196            0.050000   1e-08      0         0          0.0000    0
C0196            N0196            N0197            0.050000   1e-08      0         0          0.0000    0
C0197            N0197            N0198            0.050000   1e-08      0         0          0.0000    0
C0198            N0198            N0199            0.050000   1e-08      0         0          0.0000    0
C0199            N0199            N0200            0.050000   1e-08      0         0          0.0000    0
COUT             N0200            OUTF             0.050000   1e-08      0.015     0          0.0000    0

[XSECTIONS]
;;Link           Shape        Geom1     Geom2     Geom3  Geom4  Barrels
C0000            RECT_OPEN    0.015     1.000     0      0      1
C0001            RECT_OPEN    0.015     1.000     0      0      1
C0002            RECT_OPEN    0.015     1.000     0      0      1
C0003            RECT_OPEN    0.015     1.000     0      0      1
C0004            RECT_OPEN    0.015     1.000     0      0      1
C0005            RECT_OPEN    0.015     1.000     0      0      1
C0006            RECT_OPEN    0.015     1.000     0      0      1
C0007            RECT_OPEN    0.015     1.000     0      0      1
C0008            RECT_OPEN    0.015     1.000     0      0      1
C0009            RECT_OPEN    0.015     1.000     0      0      1
C0010            RECT_OPEN    0.015     1.000     0      0      1
C0011            RECT_OPEN    0.015     1.000     0      0      1
C0012            RECT_OPEN    0.015     1.000     0      0      1
C0013            RECT_OPEN    0.015     1.000     0      0      1
C0014            RECT_OPEN    0.015     1.000     0      0      1
C0015            RECT_OPEN    0.015     1.000     0      0      1
C0016            RECT_OPEN    0.015     1.000     0      0      1
C0017            RECT_OPEN    0.015     1.000     0      0      1
C0018            RECT_OPEN    0.015     1.000     0      0      1
C0019            RECT_OPEN    0.015     1.000     0      0      1
C0020            RECT_OPEN    0.015     1.000     0      0      1
C0021            RECT_OPEN    0.015     1.000     0      0      1
C0022            RECT_OPEN    0.015     1.000     0      0      1
C0023            RECT_OPEN    0.015     1.000     0      0      1
C0024            RECT_OPEN    0.015     1.000     0      0      1
C0025            RECT_OPEN    0.015     1.000     0      0      1
C0026            RECT_OPEN    0.015     1.000     0      0      1
C0027            RECT_OPEN    0.015     1.000     0      0      1
C0028            RECT_OPEN    0.015     1.000     0      0      1
C0029            RECT_OPEN    0.015     1.000     0      0      1
C0030            RECT_OPEN    0.015     1.000     0      0      1
C0031            RECT_OPEN    0.015     1.000     0      0      1
C0032            RECT_OPEN    0.015     1.000     0      0      1
C0033            RECT_OPEN    0.015     1.000     0      0      1
C0034            RECT_OPEN    0.015     1.000     0      0      1
C0035            RECT_OPEN    0.015     1.000     0      0      1
C0036            RECT_OPEN    0.015     1.000     0      0      1
C0037            RECT_OPEN    0.015     1.000     0      0      1
C0038            RECT_OPEN    0.015     1.000     0      0      1
C0039            RECT_OPEN    0.015     1.000     0      0      1
C0040            RECT_OPEN    0.015     1.000     0      0      1
C0041            RECT_OPEN    0.015     1.000     0      0      1
C0042            RECT_OPEN    0.015     1.000     0      0      1
C0043            RECT_OPEN    0.015     1.000     0      0      1
C0044            RECT_OPEN    0.015     1.000     0      0      1
C0045            RECT_OPEN    0.015     1.000     0      0      1
C0046            RECT_OPEN    0.015     1.000     0      0      1
C0047            RECT_OPEN    0.015     1.000     0      0      1
C0048            RECT_OPEN    0.015     1.000     0      0      1
C0049            RECT_OPEN    0.015     1.000     0      0      1
C0050            RECT_OPEN    0.015     1.000     0      0      1
C0051            RECT_OPEN    0.015     1.000     0      0      1
C0052            RECT_OPEN    0.015     1.000     0      0      1
C0053            RECT_OPEN    0.015     1.000     0      0      1
C0054            RECT_OPEN    0.015     1.000     0      0      1
C0055            RECT_OPEN    0.015     1.000     0      0      1
C0056            RECT_OPEN    0.015     1.000     0      0      1
C0057            RECT_OPEN    0.015     1.000     0      0      1
C0058            RECT_OPEN    0.015     1.000     0      0      1
C0059            RECT_OPEN    0.015     1.000     0      0      1
C0060            RECT_OPEN    0.015     1.000     0      0      1
C0061            RECT_OPEN    0.015     1.000     0      0      1
C0062            RECT_OPEN    0.015     1.000     0      0      1
C0063            RECT_OPEN    0.015     1.000     0      0      1
C0064            RECT_OPEN    0.015     1.000     0      0      1
C0065            RECT_OPEN    0.015     1.000     0      0      1
C0066            RECT_OPEN    0.015     1.000     0      0      1
C0067            RECT_OPEN    0.015     1.000     0      0      1
C0068            RECT_OPEN    0.015     1.000     0      0      1
C0069            RECT_OPEN    0.015     1.000     0      0      1
C0070            RECT_OPEN    0.015     1.000     0      0      1
C0071            RECT_OPEN    0.015     1.000     0      0      1
C0072            RECT_OPEN    0.015     1.000     0      0      1
C0073            RECT_OPEN    0.015     1.000     0      0      1
C0074            RECT_OPEN    0.015     1.000     0      0      1
C0075            RECT_OPEN    0.015     1.000     0      0      1
C0076            RECT_OPEN    0.015     1.000     0      0      1
C0077            RECT_OPEN    0.015     1.000     0      0      1
C0078            RECT_OPEN    0.015     1.000     0      0      1
C0079            RECT_OPEN    0.015     1.000     0      0      1
C0080            RECT_OPEN    0.015     1.000     0      0      1
C0081            RECT_OPEN    0.015     1.000     0      0      1
C0082            RECT_OPEN    0.015     1.000     0      0      1
C0083            RECT_OPEN    0.015     1.000     0      0      1
C0084            RECT_OPEN    0.015     1.000     0      0      1
C0085            RECT_OPEN    0.015     1.000     0      0      1
C0086            RECT_OPEN    0.015     1.000     0      0      1
C0087            RECT_OPEN    0.015     1.000     0      0      1
C0088            RECT_OPEN    0.015     1.000     0      0      1
C0089            RECT_OPEN    0.015     1.000     0      0      1
C0090            RECT_OPEN    0.015     1.000     0      0      1
C0091            RECT_OPEN    0.015     1.000     0      0      1
C0092            RECT_OPEN    0.015     1.000     0      0      1
C0093            RECT_OPEN    0.015     1.000     0      0      1
C0094            RECT_OPEN    0.015     1.000     0      0      1
C0095            RECT_OPEN    0.015     1.000     0      0      1
C0096            RECT_OPEN    0.015     1.000     0      0      1
C0097            RECT_OPEN    0.015     1.000     0      0      1
C0098            RECT_OPEN    0.015     1.000     0      0      1
C0099            RECT_OPEN    0.015     1.000     0      0      1
C0100            RECT_OPEN    0.015     1.000     0      0      1
C0101            RECT_OPEN    0.015     1.000     0      0      1
C0102            RECT_OPEN    0.015     1.000     0      0      1
C0103            RECT_OPEN    0.015     1.000     0      0      1
C0104            RECT_OPEN    0.015     1.000     0      0      1
C0105            RECT_OPEN    0.015     1.000     0      0      1
C0106            RECT_OPEN    0.015     1.000     0      0      1
C0107            RECT_OPEN    0.015     1.000     0      0      1
C0108            RECT_OPEN    0.015     1.000     0      0      1
C0109            RECT_OPEN    0.015     1.000     0      0      1
C0110            RECT_OPEN    0.015     1.000     0      0      1
C0111            RECT_OPEN    0.015     1.000     0      0      1
C0112            RECT_OPEN    0.015     1.000     0      0      1
C0113            RECT_OPEN    0.015     1.000     0      0      1
C0114            RECT_OPEN    0.015     1.000     0      0      1
C0115            RECT_OPEN    0.015     1.000     0      0      1
C0116            RECT_OPEN    0.015     1.000     0      0      1
C0117            RECT_OPEN    0.015     1.000     0      0      1
C0118            RECT_OPEN    0.015     1.000     0      0      1
C0119            RECT_OPEN    0.015     1.000     0      0      1
C0120            RECT_OPEN    0.015     1.000     0      0      1
C0121            RECT_OPEN    0.015     1.000     0      0      1
C0122            RECT_OPEN    0.015     1.000     0      0      1
C0123            RECT_OPEN    0.015     1.000     0      0      1
C0124            RECT_OPEN    0.015     1.000     0      0      1
C0125            RECT_OPEN    0.015     1.000     0      0      1
C0126            RECT_OPEN    0.015     1.000     0      0      1
C0127            RECT_OPEN    0.015     1.000     0      0      1
C0128            RECT_OPEN    0.015     1.000     0      0      1
C0129            RECT_OPEN    0.015     1.000     0      0      1
C0130            RECT_OPEN    0.015     1.000     0      0      1
C0131            RECT_OPEN    0.015     1.000     0      0      1
C0132            RECT_OPEN    0.015     1.000     0      0      1
C0133            RECT_OPEN    0.015     1.000     0      0      1
C0134            RECT_OPEN    0.015     1.000     0      0      1
C0135            RECT_OPEN    0.015     1.000     0      0      1
C0136            RECT_OPEN    0.015     1.000     0      0      1
C0137            RECT_OPEN    0.015     1.000     0      0      1
C0138            RECT_OPEN    0.015     1.000     0      0      1
C0139            RECT_OPEN    0.015     1.000     0      0      1
C0140            RECT_OPEN    0.015     1.000     0      0      1
C0141            RECT_OPEN    0.015     1.000     0      0      1
C0142            RECT_OPEN    0.015     1.000     0      0      1
C0143            RECT_OPEN    0.015     1.000     0      0      1
C0144            RECT_OPEN    0.015     1.000     0      0      1
C0145            RECT_OPEN    0.015     1.000     0      0      1
C0146            RECT_OPEN    0.015     1.000     0      0      1
C0147            RECT_OPEN    0.015     1.000     0      0      1
C0148            RECT_OPEN    0.015     1.000     0      0      1
C0149            RECT_OPEN    0.015     1.000     0      0      1
C0150            RECT_OPEN    0.015     1.000     0      0      1
C0151            RECT_OPEN    0.015     1.000     0      0      1
C0152            RECT_OPEN    0.015     1.000     0      0      1
C0153            RECT_OPEN    0.015     1.000     0      0      1
C0154            RECT_OPEN    0.015     1.000     0      0      1
C0155            RECT_OPEN    0.015     1.000     0      0      1
C0156            RECT_OPEN    0.015     1.000     0      0      1
C0157            RECT_OPEN    0.015     1.000     0      0      1
C0158            RECT_OPEN    0.015     1.000     0      0      1
C0159            RECT_OPEN    0.015     1.000     0      0      1
C0160            RECT_OPEN    0.015     1.000     0      0      1
C0161            RECT_OPEN    0.015     1.000     0      0      1
C0162            RECT_OPEN    0.015     1.000     0      0      1
C0163            RECT_OPEN    0.015     1.000     0      0      1
C0164            RECT_OPEN    0.015     1.000     0      0      1
C0165            RECT_OPEN    0.015     1.000     0      0      1
C0166            RECT_OPEN    0.015     1.000     0      0      1
C0167            RECT_OPEN    0.015     1.000     0      0      1
C0168            RECT_OPEN    0.015     1.000     0      0      1
C0169            RECT_OPEN    0.015     1.000     0      0      1
C0170            RECT_OPEN    0.015     1.000     0      0      1
C0171            RECT_OPEN    0.015     1.000     0      0      1
C0172            RECT_OPEN    0.015     1.000     0      0      1
C0173            RECT_OPEN    0.015     1.000     0      0      1
C0174            RECT_OPEN    0.015     1.000     0      0      1
C0175            RECT_OPEN    0.015     1.000     0      0      1
C0176            RECT_OPEN    0.015     1.000     0      0      1
C0177            RECT_OPEN    0.015     1.000     0      0      1
C0178            RECT_OPEN    0.015     1.000     0      0      1
C0179            RECT_OPEN    0.015     1.000     0      0      1
C0180            RECT_OPEN    0.015     1.000     0      0      1
C0181            RECT_OPEN    0.015     1.000     0      0      1
C0182            RECT_OPEN    0.015     1.000     0      0      1
C0183            RECT_OPEN    0.015     1.000     0      0      1
C0184            RECT_OPEN    0.015     1.000     0      0      1
C0185            RECT_OPEN    0.015     1.000     0      0      1
C0186            RECT_OPEN    0.015     1.000     0      0      1
C0187            RECT_OPEN    0.015     1.000     0      0      1
C0188            RECT_OPEN    0.015     1.000     0      0      1
C0189            RECT_OPEN    0.015     1.000     0      0      1
C0190            RECT_OPEN    0.015     1.000     0      0      1
C0191            RECT_OPEN    0.015     1.000     0      0      1
C0192            RECT_OPEN    0.015     1.000     0      0      1
C0193            RECT_OPEN    0.015     1.000     0      0      1
C0194            RECT_OPEN    0.015     1.000     0      0      1
C0195            RECT_OPEN    0.015     1.000     0      0      1
C0196            RECT_OPEN    0.015     1.000     0      0      1
C0197            RECT_OPEN    0.015     1.000     0      0      1
C0198            RECT_OPEN    0.015     1.000     0      0      1
C0199            RECT_OPEN    0.015     1.000     0      0      1
COUT             RECT_OPEN    0.015     1.000     0      0      1

[COORDINATES]
;;Node           X-Coord      Y-Coord
N0000            0.0000       0.0000      
N0001            0.0500       0.0000      
N0002            0.1000       0.0000      
N0003            0.1500       0.0000      
N0004            0.2000       0.0000      
N0005            0.2500       0.0000      
N0006            0.3000       0.0000      
N0007            0.3500       0.0000      
N0008            0.4000       0.0000      
N0009            0.4500       0.0000      
N0010            0.5000       0.0000      
N0011            0.5500       0.0000      
N0012            0.6000       0.0000      
N0013            0.6500       0.0000      
N0014            0.7000       0.0000      
N0015            0.7500       0.0000      
N0016            0.8000       0.0000      
N0017            0.8500       0.0000      
N0018            0.9000       0.0000      
N0019            0.9500       0.0000      
N0020            1.0000       0.0000      
N0021            1.0500       0.0000      
N0022            1.1000       0.0000      
N0023            1.1500       0.0000      
N0024            1.2000       0.0000      
N0025            1.2500       0.0000      
N0026            1.3000       0.0000      
N0027            1.3500       0.0000      
N0028            1.4000       0.0000      
N0029            1.4500       0.0000      
N0030            1.5000       0.0000      
N0031            1.5500       0.0000      
N0032            1.6000       0.0000      
N0033            1.6500       0.0000      
N0034            1.7000       0.0000      
N0035            1.7500       0.0000      
N0036            1.8000       0.0000      
N0037            1.8500       0.0000      
N0038            1.9000       0.0000      
N0039            1.9500       0.0000      
N0040            2.0000       0.0000      
N0041            2.0500       0.0000      
N0042            2.1000       0.0000      
N0043            2.1500       0.0000      
N0044            2.2000       0.0000      
N0045            2.2500       0.0000      
N0046            2.3000       0.0000      
N0047            2.3500       0.0000      
N0048            2.4000       0.0000      
N0049            2.4500       0.0000      
N0050            2.5000       0.0000      
N0051            2.5500       0.0000      
N0052            2.6000       0.0000      
N0053            2.6500       0.0000      
N0054            2.7000       0.0000      
N0055            2.7500       0.0000      
N0056            2.8000       0.0000      
N0057            2.8500       0.0000      
N0058            2.9000       0.0000      
N0059            2.9500       0.0000      
N0060            3.0000       0.0000      
N0061            3.0500       0.0000      
N0062            3.1000       0.0000      
N0063            3.1500       0.0000      
N0064            3.2000       0.0000      
N0065            3.2500       0.0000      
N0066            3.3000       0.0000      
N0067            3.3500       0.0000      
N0068            3.4000       0.0000      
N0069            3.4500       0.0000      
N0070            3.5000       0.0000      
N0071            3.5500       0.0000      
N0072            3.6000       0.0000      
N0073            3.6500       0.0000      
N0074            3.7000       0.0000      
N0075            3.7500       0.0000      
N0076            3.8000       0.0000      
N0077            3.8500       0.0000      
N0078            3.9000       0.0000      
N0079            3.9500       0.0000      
N0080            4.0000       0.0000      
N0081            4.0500       0.0000      
N0082            4.1000       0.0000      
N0083            4.1500       0.0000      
N0084            4.2000       0.0000      
N0085            4.2500       0.0000      
N0086            4.3000       0.0000      
N0087            4.3500       0.0000      
N0088            4.4000       0.0000      
N0089            4.4500       0.0000      
N0090            4.5000       0.0000      
N0091            4.5500       0.0000      
N0092            4.6000       0.0000      
N0093            4.6500       0.0000      
N0094            4.7000       0.0000      
N0095            4.7500       0.0000      
N0096            4.8000       0.0000      
N0097            4.8500       0.0000      
N0098            4.9000       0.0000      
N0099            4.9500       0.0000      
N0100            5.0000       0.0000      
N0101            5.0500       0.0000      
N0102            5.1000       0.0000      
N0103            5.1500       0.0000      
N0104            5.2000       0.0000      
N0105            5.2500       0.0000      
N0106            5.3000       0.0000      
N0107            5.3500       0.0000      
N0108            5.4000       0.0000      
N0109            5.4500       0.0000      
N0110            5.5000       0.0000      
N0111            5.5500       0.0000      
N0112            5.6000       0.0000      
N0113            5.6500       0.0000      
N0114            5.7000       0.0000      
N0115            5.7500       0.0000      
N0116            5.8000       0.0000      
N0117            5.8500       0.0000      
N0118            5.9000       0.0000      
N0119            5.9500       0.0000      
N0120            6.0000       0.0000      
N0121            6.0500       0.0000      
N0122            6.1000       0.0000      
N0123            6.1500       0.0000      
N0124            6.2000       0.0000      
N0125            6.2500       0.0000      
N0126            6.3000       0.0000      
N0127            6.3500       0.0000      
N0128            6.4000       0.0000      
N0129            6.4500       0.0000      
N0130            6.5000       0.0000      
N0131            6.5500       0.0000      
N0132            6.6000       0.0000      
N0133            6.6500       0.0000      
N0134            6.7000       0.0000      
N0135            6.7500       0.0000      
N0136            6.8000       0.0000      
N0137            6.8500       0.0000      
N0138            6.9000       0.0000      
N0139            6.9500       0.0000      
N0140            7.0000       0.0000      
N0141            7.0500       0.0000      
N0142            7.1000       0.0000      
N0143            7.1500       0.0000      
N0144            7.2000       0.0000      
N0145            7.2500       0.0000      
N0146            7.3000       0.0000      
N0147            7.3500       0.0000      
N0148            7.4000       0.0000      
N0149            7.4500       0.0000      
N0150            7.5000       0.0000      
N0151            7.5500       0.0000      
N0152            7.6000       0.0000      
N0153            7.6500       0.0000      
N0154            7.7000       0.0000      
N0155            7.7500       0.0000      
N0156            7.8000       0.0000      
N0157            7.8500       0.0000      
N0158            7.9000       0.0000      
N0159            7.9500       0.0000      
N0160            8.0000       0.0000      
N0161            8.0500       0.0000      
N0162            8.1000       0.0000      
N0163            8.1500       0.0000      
N0164            8.2000       0.0000      
N0165            8.2500       0.0000      
N0166            8.3000       0.0000      
N0167            8.3500       0.0000      
N0168            8.4000       0.0000      
N0169            8.4500       0.0000      
N0170            8.5000       0.0000      
N0171            8.5500       0.0000      
N0172            8.6000       0.0000      
N0173            8.6500       0.0000      
N0174            8.7000       0.0000      
N0175            8.7500       0.0000      
N0176            8.8000       0.0000      
N0177            8.8500       0.0000      
N0178            8.9000       0.0000      
N0179            8.9500       0.0000      
N0180            9.0000       0.0000      
N0181            9.0500       0.0000      
N0182            9.1000       0.0000      
N0183            9.1500       0.0000      
N0184            9.2000       0.0000      
N0185            9.2500       0.0000      
N0186            9.3000       0.0000      
N0187            9.3500       0.0000      
N0188            9.4000       0.0000      
N0189            9.4500       0.0000      
N0190            9.5000       0.0000      
N0191            9.5500       0.0000      
N0192            9.6000       0.0000      
N0193            9.6500       0.0000      
N0194            9.7000       0.0000      
N0195            9.7500       0.0000      
N0196            9.8000       0.0000      
N0197            9.8500       0.0000      
N0198            9.9000       0.0000      
N0199            9.9500       0.0000      
N0200            10.0000      0.0000      
OUTF             10.0500      0.0000      

[REPORT]
INPUT      NO
CONTINUITY YES
FLOWSTATS  YES
NODES ALL
LINKS ALL

