[TITLE]
;; SWASHES stoker-wet-dam-break — Stoker dam break on a wet domain (SWASHES 4.1.1) — 2D strip 200x20 (edge ~0.05 m) for solver 2d-explicit

[OPTIONS]
FLOW_UNITS           CMS
INFILTRATION         HORTON
FLOW_ROUTING         DYNWAVE
LINK_OFFSETS         DEPTH
MIN_SLOPE            0
ALLOW_PONDING        NO
SKIP_STEADY_STATE    NO
THREADS              1
START_DATE           01/01/2026
START_TIME           00:00:00
REPORT_START_DATE    01/01/2026
REPORT_START_TIME    00:00:00
END_DATE             01/01/2026
END_TIME             0:00:06
REPORT_STEP          0:00:01
WET_STEP             0:00:01
DRY_STEP             0:00:01
ROUTING_STEP         1

[JUNCTIONS]
JD1     0     10        0          0         0

[OUTFALLS]
OD1     0     FREE          NO

[CONDUITS]
CD1     JD1   OD1  0.05   0.01   0   0   0

[XSECTIONS]
CD1     CIRCULAR  1.0    0      0      0      1

[COORDINATES]
JD1     10.0500   0.0000
OD1     10.1000   0.0000

[2D_OPTIONS]
INTEGRATOR             EXPLICIT
CFL_NUMBER             0.5
REPORT_2D              NO
OUTPUT_FILE            surface.h5
MAX_TIMESTEP           1.0
RAINFALL_MODE          NONE
DRY_DEPTH              0.0001
H_MOVE                 0.0001

[2D_VERTICES]
;; UNITS: SI (m)
;;X  Y  Z
0 -0.5 0
0.05 -0.5 0
0.1 -0.5 0
0.15 -0.5 0
0.2 -0.5 0
0.25 -0.5 0
0.3 -0.5 0
0.35 -0.5 0
0.4 -0.5 0
0.45 -0.5 0
0.5 -0.5 0
0.55 -0.5 0
0.6 -0.5 0
0.65 -0.5 0
0.7 -0.5 0
0.75 -0.5 0
0.8 -0.5 0
0.85 -0.5 0
0.9 -0.5 0
0.95 -0.5 0
1 -0.5 0
1.05 -0.5 0
1.1 -0.5 0
1.15 -0.5 0
1.2 -0.5 0
1.25 -0.5 0
1.3 -0.5 0
1.35 -0.5 0
1.4 -0.5 0
1.45 -0.5 0
1.5 -0.5 0
1.55 -0.5 0
1.6 -0.5 0
1.65 -0.5 0
1.7 -0.5 0
1.75 -0.5 0
1.8 -0.5 0
1.85 -0.5 0
1.9 -0.5 0
1.95 -0.5 0
2 -0.5 0
2.05 -0.5 0
2.1 -0.5 0
2.15 -0.5 0
2.2 -0.5 0
2.25 -0.5 0
2.3 -0.5 0
2.35 -0.5 0
2.4 -0.5 0
2.45 -0.5 0
2.5 -0.5 0
2.55 -0.5 0
2.6 -0.5 0
2.65 -0.5 0
2.7 -0.5 0
2.75 -0.5 0
2.8 -0.5 0
2.85 -0.5 0
2.9 -0.5 0
2.95 -0.5 0
3 -0.5 0
3.05 -0.5 0
3.1 -0.5 0
3.15 -0.5 0
3.2 -0.5 0
3.25 -0.5 0
3.3 -0.5 0
3.35 -0.5 0
3.4 -0.5 0
3.45 -0.5 0
3.5 -0.5 0
3.55 -0.5 0
3.6 -0.5 0
3.65 -0.5 0
3.7 -0.5 0
3.75 -0.5 0
3.8 -0.5 0
3.85 -0.5 0
3.9 -0.5 0
3.95 -0.5 0
4 -0.5 0
4.05 -0.5 0
4.1 -0.5 0
4.15 -0.5 0
4.2 -0.5 0
4.25 -0.5 0
4.3 -0.5 0
4.35 -0.5 0
4.4 -0.5 0
4.45 -0.5 0
4.5 -0.5 0
4.55 -0.5 0
4.6 -0.5 0
4.65 -0.5 0
4.7 -0.5 0
4.75 -0.5 0
4.8 -0.5 0
4.85 -0.5 0
4.9 -0.5 0
4.95 -0.5 0
5 -0.5 0
5.05 -0.5 0
5.1 -0.5 0
5.15 -0.5 0
5.2 -0.5 0
5.25 -0.5 0
5.3 -0.5 0
5.35 -0.5 0
5.4 -0.5 0
5.45 -0.5 0
5.5 -0.5 0
5.55 -0.5 0
5.6 -0.5 0
5.65 -0.5 0
5.7 -0.5 0
5.75 -0.5 0
5.8 -0.5 0
5.85 -0.5 0
5.9 -0.5 0
5.95 -0.5 0
6 -0.5 0
6.05 -0.5 0
6.1 -0.5 0
6.15 -0.5 0
6.2 -0.5 0
6.25 -0.5 0
6.3 -0.5 0
6.35 -0.5 0
6.4 -0.5 0
6.45 -0.5 0
6.5 -0.5 0
6.55 -0.5 0
6.6 -0.5 0
6.65 -0.5 0
6.7 -0.5 0
6.75 -0.5 0
6.8 -0.5 0
6.85 -0.5 0
6.9 -0.5 0
6.95 -0.5 0
7 -0.5 0
7.05 -0.5 0
7.1 -0.5 0
7.15 -0.5 0
7.2 -0.5 0
7.25 -0.5 0
7.3 -0.5 0
7.35 -0.5 0
7.4 -0.5 0
7.45 -0.5 0
7.5 -0.5 0
7.55 -0.5 0
7.6 -0.5 0
7.65 -0.5 0
7.7 -0.5 0
7.75 -0.5 0
7.8 -0.5 0
7.85 -0.5 0
7.9 -0.5 0
7.95 -0.5 0
8 -0.5 0
8.05 -0.5 0
8.1 -0.5 0
8.15 -0.5 0
8.2 -0.5 0
8.25 -0.5 0
8.3 -0.5 0
8.35 -0.5 0
8.4 -0.5 0
8.45 -0.5 0
8.5 -0.5 0
8.55 -0.5 0
8.6 -0.5 0
8.65 -0.5 0
8.7 -0.5 0
8.75 -0.5 0
8.8 -0.5 0
8.85 -0.5 0
8.9 -0.5 0
8.95 -0.5 0
9 -0.5 0
9.05 -0.5 0
9.1 -0.5 0
9.15 -0.5 0
9.2 -0.5 0
9.25 -0.5 0
9.3 -0.5 0
9.35 -0.5 0
9.4 -0.5 0
9.45 -0.5 0
9.5 -0.5 0
9.55 -0.5 0
9.6 -0.5 0
9.65 -0.5 0
9.7 -0.5 0
9.75 -0.5 0
9.8 -0.5 0
9.85 -0.5 0
9.9 -0.5 0
9.95 -0.5 0
10 -0.5 0
0 -0.45 0
0.05 -0.45 0
0.1 -0.45 0
0.15 -0.45 0
0.2 -0.45 0
0.25 -0.45 0
0.3 -0.45 0
0.35 -0.45 0
0.4 -0.45 0
0.45 -0.45 0
0.5 -0.45 0
0.55 -0.45 0
0.6 -0.45 0
0.65 -0.45 0
0.7 -0.45 0
0.75 -0.45 0
0.8 -0.45 0
0.85 -0.45 0
0.9 -0.45 0
0.95 -0.45 0
1 -0.45 0
1.05 -0.45 0
1.1 -0.45 0
1.15 -0.45 0
1.2 -0.45 0
1.25 -0.45 0
1.3 -0.45 0
1.35 -0.45 0
1.4 -0.45 0
1.45 -0.45 0
1.5 -0.45 0
1.55 -0.45 0
1.6 -0.45 0
1.65 -0.45 0
1.7 -0.45 0
1.75 -0.45 0
1.8 -0.45 0
1.85 -0.45 0
1.9 -0.45 0
1.95 -0.45 0
2 -0.45 0
2.05 -0.45 0
2.1 -0.45 0
2.15 -0.45 0
2.2 -0.45 0
2.25 -0.45 0
2.3 -0.45 0
2.35 -0.45 0
2.4 -0.45 0
2.45 -0.45 0
2.5 -0.45 0
2.55 -0.45 0
2.6 -0.45 0
2.65 -0.45 0
2.7 -0.45 0
2.75 -0.45 0
2.8 -0.45 0
2.85 -0.45 0
2.9 -0.45 0
2.95 -0.45 0
3 -0.45 0
3.05 -0.45 0
3.1 -0.45 0
3.15 -0.45 0
3.2 -0.45 0
3.25 -0.45 0
3.3 -0.45 0
3.35 -0.45 0
3.4 -0.45 0
3.45 -0.45 0
3.5 -0.45 0
3.55 -0.45 0
3.6 -0.45 0
3.65 -0.45 0
3.7 -0.45 0
3.75 -0.45 0
3.8 -0.45 0
3.85 -0.45 0
3.9 -0.45 0
3.95 -0.45 0
4 -0.45 0
4.05 -0.45 0
4.1 -0.45 0
4.15 -0.45 0
4.2 -0.45 0
4.25 -0.45 0
4.3 -0.45 0
4.35 -0.45 0
4.4 -0.45 0
4.45 -0.45 0
4.5 -0.45 0
4.55 -0.45 0
4.6 -0.45 0
4.65 -0.45 0
4.7 -0.45 0
4.75 -0.45 0
4.8 -0.45 0
4.85 -0.45 0
4.9 -0.45 0
4.95 -0.45 0
5 -0.45 0
5.05 -0.45 0
5.1 -0.45 0
5.15 -0.45 0
5.2 -0.45 0
5.25 -0.45 0
5.3 -0.45 0
5.35 -0.45 0
5.4 -0.45 0
5.45 -0.45 0
5.5 -0.45 0
5.55 -0.45 0
5.6 -0.45 0
5.65 -0.45 0
5.7 -0.45 0
5.75 -0.45 0
5.8 -0.45 0
5.85 -0.45 0
5.9 -0.45 0
5.95 -0.45 0
6 -0.45 0
6.05 -0.45 0
6.1 -0.45 0
6.15 -0.45 0
6.2 -0.45 0
6.25 -0.45 0
6.3 -0.45 0
6.35 -0.45 0
6.4 -0.45 0
6.45 -0.45 0
6.5 -0.45 0
6.55 -0.45 0
6.6 -0.45 0
6.65 -0.45 0
6.7 -0.45 0
6.75 -0.45 0
6.8 -0.45 0
6.85 -0.45 0
6.9 -0.45 0
6.95 -0.45 0
7 -0.45 0
7.05 -0.45 0
7.1 -0.45 0
7.15 -0.45 0
7.2 -0.45 0
7.25 -0.45 0
7.3 -0.45 0
7.35 -0.45 0
7.4 -0.45 0
7.45 -0.45 0
7.5 -0.45 0
7.55 -0.45 0
7.6 -0.45 0
7.65 -0.45 0
7.7 -0.45 0
7.75 -0.45 0
7.8 -0.45 0
7.85 -0.45 0
7.9 -0.45 0
7.95 -0.45 0
8 -0.45 0
8.05 -0.45 0
8.1 -0.45 0
8.15 -0.45 0
8.2 -0.45 0
8.25 -0.45 0
8.3 -0.45 0
8.35 -0.45 0
8.4 -0.45 0
8.45 -0.45 0
8.5 -0.45 0
8.55 -0.45 0
8.6 -0.45 0
8.65 -0.45 0
8.7 -0.45 0
8.75 -0.45 0
8.8 -0.45 0
8.85 -0.45 0
8.9 -0.45 0
8.95 -0.45 0
9 -0.45 0
9.05 -0.45 0
9.1 -0.45 0
9.15 -0.45 0
9.2 -0.45 0
9.25 -0.45 0
9.3 -0.45 0
9.35 -0.45 0
9.4 -0.45 0
9.45 -0.45 0
9.5 -0.45 0
9.55 -0.45 0
9.6 -0.45 0
9.65 -0.45 0
9.7 -0.45 0
9.75 -0.45 0
9.8 -0.45 0
9.85 -0.45 0
9.9 -0.45 0
9.95 -0.45 0
10 -0.45 0
0 -0.4 0
0.05 -0.4 0
0.1 -0.4 0
0.15 -0.4 0
0.2 -0.4 0
0.25 -0.4 0
0.3 -0.4 0
0.35 -0.4 0
0.4 -0.4 0
0.45 -0.4 0
0.5 -0.4 0
0.55 -0.4 0
0.6 -0.4 0
0.65 -0.4 0
0.7 -0.4 0
0.75 -0.4 0
0.8 -0.4 0
0.85 -0.4 0
0.9 -0.4 0
0.95 -0.4 0
1 -0.4 0
1.05 -0.4 0
1.1 -0.4 0
1.15 -0.4 0
1.2 -0.4 0
1.25 -0.4 0
1.3 -0.4 0
1.35 -0.4 0
1.4 -0.4 0
1.45 -0.4 0
1.5 -0.4 0
1.55 -0.4 0
1.6 -0.4 0
1.65 -0.4 0
1.7 -0.4 0
1.75 -0.4 0
1.8 -0.4 0
1.85 -0.4 0
1.9 -0.4 0
1.95 -0.4 0
2 -0.4 0
2.05 -0.4 0
2.1 -0.4 0
2.15 -0.4 0
2.2 -0.4 0
2.25 -0.4 0
2.3 -0.4 0
2.35 -0.4 0
2.4 -0.4 0
2.45 -0.4 0
2.5 -0.4 0
2.55 -0.4 0
2.6 -0.4 0
2.65 -0.4 0
2.7 -0.4 0
2.75 -0.4 0
2.8 -0.4 0
2.85 -0.4 0
2.9 -0.4 0
2.95 -0.4 0
3 -0.4 0
3.05 -0.4 0
3.1 -0.4 0
3.15 -0.4 0
3.2 -0.4 0
3.25 -0.4 0
3.3 -0.4 0
3.35 -0.4 0
3.4 -0.4 0
3.45 -0.4 0
3.5 -0.4 0
3.55 -0.4 0
3.6 -0.4 0
3.65 -0.4 0
3.7 -0.4 0
3.75 -0.4 0
3.8 -0.4 0
3.85 -0.4 0
3.9 -0.4 0
3.95 -0.4 0
4 -0.4 0
4.05 -0.4 0
4.1 -0.4 0
4.15 -0.4 0
4.2 -0.4 0
4.25 -0.4 0
4.3 -0.4 0
4.35 -0.4 0
4.4 -0.4 0
4.45 -0.4 0
4.5 -0.4 0
4.55 -0.4 0
4.6 -0.4 0
4.65 -0.4 0
4.7 -0.4 0
4.75 -0.4 0
4.8 -0.4 0
4.85 -0.4 0
4.9 -0.4 0
4.95 -0.4 0
5 -0.4 0
5.05 -0.4 0
5.1 -0.4 0
5.15 -0.4 0
5.2 -0.4 0
5.25 -0.4 0
5.3 -0.4 0
5.35 -0.4 0
5.4 -0.4 0
5.45 -0.4 0
5.5 -0.4 0
5.55 -0.4 0
5.6 -0.4 0
5.65 -0.4 0
5.7 -0.4 0
5.75 -0.4 0
5.8 -0.4 0
5.85 -0.4 0
5.9 -0.4 0
5.95 -0.4 0
6 -0.4 0
6.05 -0.4 0
6.1 -0.4 0
6.15 -0.4 0
6.2 -0.4 0
6.25 -0.4 0
6.3 -0.4 0
6.35 -0.4 0
6.4 -0.4 0
6.45 -0.4 0
6.5 -0.4 0
6.55 -0.4 0
6.6 -0.4 0
6.65 -0.4 0
6.7 -0.4 0
6.75 -0.4 0
6.8 -0.4 0
6.85 -0.4 0
6.9 -0.4 0
6.95 -0.4 0
7 -0.4 0
7.05 -0.4 0
7.1 -0.4 0
7.15 -0.4 0
7.2 -0.4 0
7.25 -0.4 0
7.3 -0.4 0
7.35 -0.4 0
7.4 -0.4 0
7.45 -0.4 0
7.5 -0.4 0
7.55 -0.4 0
7.6 -0.4 0
7.65 -0.4 0
7.7 -0.4 0
7.75 -0.4 0
7.8 -0.4 0
7.85 -0.4 0
7.9 -0.4 0
7.95 -0.4 0
8 -0.4 0
8.05 -0.4 0
8.1 -0.4 0
8.15 -0.4 0
8.2 -0.4 0
8.25 -0.4 0
8.3 -0.4 0
8.35 -0.4 0
8.4 -0.4 0
8.45 -0.4 0
8.5 -0.4 0
8.55 -0.4 0
8.6 -0.4 0
8.65 -0.4 0
8.7 -0.4 0
8.75 -0.4 0
8.8 -0.4 0
8.85 -0.4 0
8.9 -0.4 0
8.95 -0.4 0
9 -0.4 0
9.05 -0.4 0
9.1 -0.4 0
9.15 -0.4 0
9.2 -0.4 0
9.25 -0.4 0
9.3 -0.4 0
9.35 -0.4 0
9.4 -0.4 0
9.45 -0.4 0
9.5 -0.4 0
9.55 -0.4 0
9.6 -0.4 0
9.65 -0.4 0
9.7 -0.4 0
9.75 -0.4 0
9.8 -0.4 0
9.85 -0.4 0
9.9 -0.4 0
9.95 -0.4 0
10 -0.4 0
0 -0.35 0
0.05 -0.35 0
0.1 -0.35 0
0.15 -0.35 0
0.2 -0.35 0
0.25 -0.35 0
0.3 -0.35 0
0.35 -0.35 0
0.4 -0.35 0
0.45 -0.35 0
0.5 -0.35 0
0.55 -0.35 0
0.6 -0.35 0
0.65 -0.35 0
0.7 -0.35 0
0.75 -0.35 0
0.8 -0.35 0
0.85 -0.35 0
0.9 -0.35 0
0.95 -0.35 0
1 -0.35 0
1.05 -0.35 0
1.1 -0.35 0
1.15 -0.35 0
1.2 -0.35 0
1.25 -0.35 0
1.3 -0.35 0
1.35 -0.35 0
1.4 -0.35 0
1.45 -0.35 0
1.5 -0.35 0
1.55 -0.35 0
1.6 -0.35 0
1.65 -0.35 0
1.7 -0.35 0
1.75 -0.35 0
1.8 -0.35 0
1.85 -0.35 0
1.9 -0.35 0
1.95 -0.35 0
2 -0.35 0
2.05 -0.35 0
2.1 -0.35 0
2.15 -0.35 0
2.2 -0.35 0
2.25 -0.35 0
2.3 -0.35 0
2.35 -0.35 0
2.4 -0.35 0
2.45 -0.35 0
2.5 -0.35 0
2.55 -0.35 0
2.6 -0.35 0
2.65 -0.35 0
2.7 -0.35 0
2.75 -0.35 0
2.8 -0.35 0
2.85 -0.35 0
2.9 -0.35 0
2.95 -0.35 0
3 -0.35 0
3.05 -0.35 0
3.1 -0.35 0
3.15 -0.35 0
3.2 -0.35 0
3.25 -0.35 0
3.3 -0.35 0
3.35 -0.35 0
3.4 -0.35 0
3.45 -0.35 0
3.5 -0.35 0
3.55 -0.35 0
3.6 -0.35 0
3.65 -0.35 0
3.7 -0.35 0
3.75 -0.35 0
3.8 -0.35 0
3.85 -0.35 0
3.9 -0.35 0
3.95 -0.35 0
4 -0.35 0
4.05 -0.35 0
4.1 -0.35 0
4.15 -0.35 0
4.2 -0.35 0
4.25 -0.35 0
4.3 -0.35 0
4.35 -0.35 0
4.4 -0.35 0
4.45 -0.35 0
4.5 -0.35 0
4.55 -0.35 0
4.6 -0.35 0
4.65 -0.35 0
4.7 -0.35 0
4.75 -0.35 0
4.8 -0.35 0
4.85 -0.35 0
4.9 -0.35 0
4.95 -0.35 0
5 -0.35 0
5.05 -0.35 0
5.1 -0.35 0
5.15 -0.35 0
5.2 -0.35 0
5.25 -0.35 0
5.3 -0.35 0
5.35 -0.35 0
5.4 -0.35 0
5.45 -0.35 0
5.5 -0.35 0
5.55 -0.35 0
5.6 -0.35 0
5.65 -0.35 0
5.7 -0.35 0
5.75 -0.35 0
5.8 -0.35 0
5.85 -0.35 0
5.9 -0.35 0
5.95 -0.35 0
6 -0.35 0
6.05 -0.35 0
6.1 -0.35 0
6.15 -0.35 0
6.2 -0.35 0
6.25 -0.35 0
6.3 -0.35 0
6.35 -0.35 0
6.4 -0.35 0
6.45 -0.35 0
6.5 -0.35 0
6.55 -0.35 0
6.6 -0.35 0
6.65 -0.35 0
6.7 -0.35 0
6.75 -0.35 0
6.8 -0.35 0
6.85 -0.35 0
6.9 -0.35 0
6.95 -0.35 0
7 -0.35 0
7.05 -0.35 0
7.1 -0.35 0
7.15 -0.35 0
7.2 -0.35 0
7.25 -0.35 0
7.3 -0.35 0
7.35 -0.35 0
7.4 -0.35 0
7.45 -0.35 0
7.5 -0.35 0
7.55 -0.35 0
7.6 -0.35 0
7.65 -0.35 0
7.7 -0.35 0
7.75 -0.35 0
7.8 -0.35 0
7.85 -0.35 0
7.9 -0.35 0
7.95 -0.35 0
8 -0.35 0
8.05 -0.35 0
8.1 -0.35 0
8.15 -0.35 0
8.2 -0.35 0
8.25 -0.35 0
8.3 -0.35 0
8.35 -0.35 0
8.4 -0.35 0
8.45 -0.35 0
8.5 -0.35 0
8.55 -0.35 0
8.6 -0.35 0
8.65 -0.35 0
8.7 -0.35 0
8.75 -0.35 0
8.8 -0.35 0
8.85 -0.35 0
8.9 -0.35 0
8.95 -0.35 0
9 -0.35 0
9.05 -0.35 0
9.1 -0.35 0
9.15 -0.35 0
9.2 -0.35 0
9.25 -0.35 0
9.3 -0.35 0
9.35 -0.35 0
9.4 -0.35 0
9.45 -0.35 0
9.5 -0.35 0
9.55 -0.35 0
9.6 -0.35 0
9.65 -0.35 0
9.7 -0.35 0
9.75 -0.35 0
9.8 -0.35 0
9.85 -0.35 0
9.9 -0.35 0
9.95 -0.35 0
10 -0.35 0
0 -0.3 0
0.05 -0.3 0
0.1 -0.3 0
0.15 -0.3 0
0.2 -0.3 0
0.25 -0.3 0
0.3 -0.3 0
0.35 -0.3 0
0.4 -0.3 0
0.45 -0.3 0
0.5 -0.3 0
0.55 -0.3 0
0.6 -0.3 0
0.65 -0.3 0
0.7 -0.3 0
0.75 -0.3 0
0.8 -0.3 0
0.85 -0.3 0
0.9 -0.3 0
0.95 -0.3 0
1 -0.3 0
1.05 -0.3 0
1.1 -0.3 0
1.15 -0.3 0
1.2 -0.3 0
1.25 -0.3 0
1.3 -0.3 0
1.35 -0.3 0
1.4 -0.3 0
1.45 -0.3 0
1.5 -0.3 0
1.55 -0.3 0
1.6 -0.3 0
1.65 -0.3 0
1.7 -0.3 0
1.75 -0.3 0
1.8 -0.3 0
1.85 -0.3 0
1.9 -0.3 0
1.95 -0.3 0
2 -0.3 0
2.05 -0.3 0
2.1 -0.3 0
2.15 -0.3 0
2.2 -0.3 0
2.25 -0.3 0
2.3 -0.3 0
2.35 -0.3 0
2.4 -0.3 0
2.45 -0.3 0
2.5 -0.3 0
2.55 -0.3 0
2.6 -0.3 0
2.65 -0.3 0
2.7 -0.3 0
2.75 -0.3 0
2.8 -0.3 0
2.85 -0.3 0
2.9 -0.3 0
2.95 -0.3 0
3 -0.3 0
3.05 -0.3 0
3.1 -0.3 0
3.15 -0.3 0
3.2 -0.3 0
3.25 -0.3 0
3.3 -0.3 0
3.35 -0.3 0
3.4 -0.3 0
3.45 -0.3 0
3.5 -0.3 0
3.55 -0.3 0
3.6 -0.3 0
3.65 -0.3 0
3.7 -0.3 0
3.75 -0.3 0
3.8 -0.3 0
3.85 -0.3 0
3.9 -0.3 0
3.95 -0.3 0
4 -0.3 0
4.05 -0.3 0
4.1 -0.3 0
4.15 -0.3 0
4.2 -0.3 0
4.25 -0.3 0
4.3 -0.3 0
4.35 -0.3 0
4.4 -0.3 0
4.45 -0.3 0
4.5 -0.3 0
4.55 -0.3 0
4.6 -0.3 0
4.65 -0.3 0
4.7 -0.3 0
4.75 -0.3 0
4.8 -0.3 0
4.85 -0.3 0
4.9 -0.3 0
4.95 -0.3 0
5 -0.3 0
5.05 -0.3 0
5.1 -0.3 0
5.15 -0.3 0
5.2 -0.3 0
5.25 -0.3 0
5.3 -0.3 0
5.35 -0.3 0
5.4 -0.3 0
5.45 -0.3 0
5.5 -0.3 0
5.55 -0.3 0
5.6 -0.3 0
5.65 -0.3 0
5.7 -0.3 0
5.75 -0.3 0
5.8 -0.3 0
5.85 -0.3 0
5.9 -0.3 0
5.95 -0.3 0
6 -0.3 0
6.05 -0.3 0
6.1 -0.3 0
6.15 -0.3 0
6.2 -0.3 0
6.25 -0.3 0
6.3 -0.3 0
6.35 -0.3 0
6.4 -0.3 0
6.45 -0.3 0
6.5 -0.3 0
6.55 -0.3 0
6.6 -0.3 0
6.65 -0.3 0
6.7 -0.3 0
6.75 -0.3 0
6.8 -0.3 0
6.85 -0.3 0
6.9 -0.3 0
6.95 -0.3 0
7 -0.3 0
7.05 -0.3 0
7.1 -0.3 0
7.15 -0.3 0
7.2 -0.3 0
7.25 -0.3 0
7.3 -0.3 0
7.35 -0.3 0
7.4 -0.3 0
7.45 -0.3 0
7.5 -0.3 0
7.55 -0.3 0
7.6 -0.3 0
7.65 -0.3 0
7.7 -0.3 0
7.75 -0.3 0
7.8 -0.3 0
7.85 -0.3 0
7.9 -0.3 0
7.95 -0.3 0
8 -0.3 0
8.05 -0.3 0
8.1 -0.3 0
8.15 -0.3 0
8.2 -0.3 0
8.25 -0.3 0
8.3 -0.3 0
8.35 -0.3 0
8.4 -0.3 0
8.45 -0.3 0
8.5 -0.3 0
8.55 -0.3 0
8.6 -0.3 0
8.65 -0.3 0
8.7 -0.3 0
8.75 -0.3 0
8.8 -0.3 0
8.85 -0.3 0
8.9 -0.3 0
8.95 -0.3 0
9 -0.3 0
9.05 -0.3 0
9.1 -0.3 0
9.15 -0.3 0
9.2 -0.3 0
9.25 -0.3 0
9.3 -0.3 0
9.35 -0.3 0
9.4 -0.3 0
9.45 -0.3 0
9.5 -0.3 0
9.55 -0.3 0
9.6 -0.3 0
9.65 -0.3 0
9.7 -0.3 0
9.75 -0.3 0
9.8 -0.3 0
9.85 -0.3 0
9.9 -0.3 0
9.95 -0.3 0
10 -0.3 0
0 -0.25 0
0.05 -0.25 0
0.1 -0.25 0
0.15 -0.25 0
0.2 -0.25 0
0.25 -0.25 0
0.3 -0.25 0
0.35 -0.25 0
0.4 -0.25 0
0.45 -0.25 0
0.5 -0.25 0
0.55 -0.25 0
0.6 -0.25 0
0.65 -0.25 0
0.7 -0.25 0
0.75 -0.25 0
0.8 -0.25 0
0.85 -0.25 0
0.9 -0.25 0
0.95 -0.25 0
1 -0.25 0
1.05 -0.25 0
1.1 -0.25 0
1.15 -0.25 0
1.2 -0.25 0
1.25 -0.25 0
1.3 -0.25 0
1.35 -0.25 0
1.4 -0.25 0
1.45 -0.25 0
1.5 -0.25 0
1.55 -0.25 0
1.6 -0.25 0
1.65 -0.25 0
1.7 -0.25 0
1.75 -0.25 0
1.8 -0.25 0
1.85 -0.25 0
1.9 -0.25 0
1.95 -0.25 0
2 -0.25 0
2.05 -0.25 0
2.1 -0.25 0
2.15 -0.25 0
2.2 -0.25 0
2.25 -0.25 0
2.3 -0.25 0
2.35 -0.25 0
2.4 -0.25 0
2.45 -0.25 0
2.5 -0.25 0
2.55 -0.25 0
2.6 -0.25 0
2.65 -0.25 0
2.7 -0.25 0
2.75 -0.25 0
2.8 -0.25 0
2.85 -0.25 0
2.9 -0.25 0
2.95 -0.25 0
3 -0.25 0
3.05 -0.25 0
3.1 -0.25 0
3.15 -0.25 0
3.2 -0.25 0
3.25 -0.25 0
3.3 -0.25 0
3.35 -0.25 0
3.4 -0.25 0
3.45 -0.25 0
3.5 -0.25 0
3.55 -0.25 0
3.6 -0.25 0
3.65 -0.25 0
3.7 -0.25 0
3.75 -0.25 0
3.8 -0.25 0
3.85 -0.25 0
3.9 -0.25 0
3.95 -0.25 0
4 -0.25 0
4.05 -0.25 0
4.1 -0.25 0
4.15 -0.25 0
4.2 -0.25 0
4.25 -0.25 0
4.3 -0.25 0
4.35 -0.25 0
4.4 -0.25 0
4.45 -0.25 0
4.5 -0.25 0
4.55 -0.25 0
4.6 -0.25 0
4.65 -0.25 0
4.7 -0.25 0
4.75 -0.25 0
4.8 -0.25 0
4.85 -0.25 0
4.9 -0.25 0
4.95 -0.25 0
5 -0.25 0
5.05 -0.25 0
5.1 -0.25 0
5.15 -0.25 0
5.2 -0.25 0
5.25 -0.25 0
5.3 -0.25 0
5.35 -0.25 0
5.4 -0.25 0
5.45 -0.25 0
5.5 -0.25 0
5.55 -0.25 0
5.6 -0.25 0
5.65 -0.25 0
5.7 -0.25 0
5.75 -0.25 0
5.8 -0.25 0
5.85 -0.25 0
5.9 -0.25 0
5.95 -0.25 0
6 -0.25 0
6.05 -0.25 0
6.1 -0.25 0
6.15 -0.25 0
6.2 -0.25 0
6.25 -0.25 0
6.3 -0.25 0
6.35 -0.25 0
6.4 -0.25 0
6.45 -0.25 0
6.5 -0.25 0
6.55 -0.25 0
6.6 -0.25 0
6.65 -0.25 0
6.7 -0.25 0
6.75 -0.25 0
6.8 -0.25 0
6.85 -0.25 0
6.9 -0.25 0
6.95 -0.25 0
7 -0.25 0
7.05 -0.25 0
7.1 -0.25 0
7.15 -0.25 0
7.2 -0.25 0
7.25 -0.25 0
7.3 -0.25 0
7.35 -0.25 0
7.4 -0.25 0
7.45 -0.25 0
7.5 -0.25 0
7.55 -0.25 0
7.6 -0.25 0
7.65 -0.25 0
7.7 -0.25 0
7.75 -0.25 0
7.8 -0.25 0
7.85 -0.25 0
7.9 -0.25 0
7.95 -0.25 0
8 -0.25 0
8.05 -0.25 0
8.1 -0.25 0
8.15 -0.25 0
8.2 -0.25 0
8.25 -0.25 0
8.3 -0.25 0
8.35 -0.25 0
8.4 -0.25 0
8.45 -0.25 0
8.5 -0.25 0
8.55 -0.25 0
8.6 -0.25 0
8.65 -0.25 0
8.7 -0.25 0
8.75 -0.25 0
8.8 -0.25 0
8.85 -0.25 0
8.9 -0.25 0
8.95 -0.25 0
9 -0.25 0
9.05 -0.25 0
9.1 -0.25 0
9.15 -0.25 0
9.2 -0.25 0
9.25 -0.25 0
9.3 -0.25 0
9.35 -0.25 0
9.4 -0.25 0
9.45 -0.25 0
9.5 -0.25 0
9.55 -0.25 0
9.6 -0.25 0
9.65 -0.25 0
9.7 -0.25 0
9.75 -0.25 0
9.8 -0.25 0
9.85 -0.25 0
9.9 -0.25 0
9.95 -0.25 0
10 -0.25 0
0 -0.2 0
0.05 -0.2 0
0.1 -0.2 0
0.15 -0.2 0
0.2 -0.2 0
0.25 -0.2 0
0.3 -0.2 0
0.35 -0.2 0
0.4 -0.2 0
0.45 -0.2 0
0.5 -0.2 0
0.55 -0.2 0
0.6 -0.2 0
0.65 -0.2 0
0.7 -0.2 0
0.75 -0.2 0
0.8 -0.2 0
0.85 -0.2 0
0.9 -0.2 0
0.95 -0.2 0
1 -0.2 0
1.05 -0.2 0
1.1 -0.2 0
1.15 -0.2 0
1.2 -0.2 0
1.25 -0.2 0
1.3 -0.2 0
1.35 -0.2 0
1.4 -0.2 0
1.45 -0.2 0
1.5 -0.2 0
1.55 -0.2 0
1.6 -0.2 0
1.65 -0.2 0
1.7 -0.2 0
1.75 -0.2 0
1.8 -0.2 0
1.85 -0.2 0
1.9 -0.2 0
1.95 -0.2 0
2 -0.2 0
2.05 -0.2 0
2.1 -0.2 0
2.15 -0.2 0
2.2 -0.2 0
2.25 -0.2 0
2.3 -0.2 0
2.35 -0.2 0
2.4 -0.2 0
2.45 -0.2 0
2.5 -0.2 0
2.55 -0.2 0
2.6 -0.2 0
2.65 -0.2 0
2.7 -0.2 0
2.75 -0.2 0
2.8 -0.2 0
2.85 -0.2 0
2.9 -0.2 0
2.95 -0.2 0
3 -0.2 0
3.05 -0.2 0
3.1 -0.2 0
3.15 -0.2 0
3.2 -0.2 0
3.25 -0.2 0
3.3 -0.2 0
3.35 -0.2 0
3.4 -0.2 0
3.45 -0.2 0
3.5 -0.2 0
3.55 -0.2 0
3.6 -0.2 0
3.65 -0.2 0
3.7 -0.2 0
3.75 -0.2 0
3.8 -0.2 0
3.85 -0.2 0
3.9 -0.2 0
3.95 -0.2 0
4 -0.2 0
4.05 -0.2 0
4.1 -0.2 0
4.15 -0.2 0
4.2 -0.2 0
4.25 -0.2 0
4.3 -0.2 0
4.35 -0.2 0
4.4 -0.2 0
4.45 -0.2 0
4.5 -0.2 0
4.55 -0.2 0
4.6 -0.2 0
4.65 -0.2 0
4.7 -0.2 0
4.75 -0.2 0
4.8 -0.2 0
4.85 -0.2 0
4.9 -0.2 0
4.95 -0.2 0
5 -0.2 0
5.05 -0.2 0
5.1 -0.2 0
5.15 -0.2 0
5.2 -0.2 0
5.25 -0.2 0
5.3 -0.2 0
5.35 -0.2 0
5.4 -0.2 0
5.45 -0.2 0
5.5 -0.2 0
5.55 -0.2 0
5.6 -0.2 0
5.65 -0.2 0
5.7 -0.2 0
5.75 -0.2 0
5.8 -0.2 0
5.85 -0.2 0
5.9 -0.2 0
5.95 -0.2 0
6 -0.2 0
6.05 -0.2 0
6.1 -0.2 0
6.15 -0.2 0
6.2 -0.2 0
6.25 -0.2 0
6.3 -0.2 0
6.35 -0.2 0
6.4 -0.2 0
6.45 -0.2 0
6.5 -0.2 0
6.55 -0.2 0
6.6 -0.2 0
6.65 -0.2 0
6.7 -0.2 0
6.75 -0.2 0
6.8 -0.2 0
6.85 -0.2 0
6.9 -0.2 0
6.95 -0.2 0
7 -0.2 0
7.05 -0.2 0
7.1 -0.2 0
7.15 -0.2 0
7.2 -0.2 0
7.25 -0.2 0
7.3 -0.2 0
7.35 -0.2 0
7.4 -0.2 0
7.45 -0.2 0
7.5 -0.2 0
7.55 -0.2 0
7.6 -0.2 0
7.65 -0.2 0
7.7 -0.2 0
7.75 -0.2 0
7.8 -0.2 0
7.85 -0.2 0
7.9 -0.2 0
7.95 -0.2 0
8 -0.2 0
8.05 -0.2 0
8.1 -0.2 0
8.15 -0.2 0
8.2 -0.2 0
8.25 -0.2 0
8.3 -0.2 0
8.35 -0.2 0
8.4 -0.2 0
8.45 -0.2 0
8.5 -0.2 0
8.55 -0.2 0
8.6 -0.2 0
8.65 -0.2 0
8.7 -0.2 0
8.75 -0.2 0
8.8 -0.2 0
8.85 -0.2 0
8.9 -0.2 0
8.95 -0.2 0
9 -0.2 0
9.05 -0.2 0
9.1 -0.2 0
9.15 -0.2 0
9.2 -0.2 0
9.25 -0.2 0
9.3 -0.2 0
9.35 -0.2 0
9.4 -0.2 0
9.45 -0.2 0
9.5 -0.2 0
9.55 -0.2 0
9.6 -0.2 0
9.65 -0.2 0
9.7 -0.2 0
9.75 -0.2 0
9.8 -0.2 0
9.85 -0.2 0
9.9 -0.2 0
9.95 -0.2 0
10 -0.2 0
0 -0.15 0
0.05 -0.15 0
0.1 -0.15 0
0.15 -0.15 0
0.2 -0.15 0
0.25 -0.15 0
0.3 -0.15 0
0.35 -0.15 0
0.4 -0.15 0
0.45 -0.15 0
0.5 -0.15 0
0.55 -0.15 0
0.6 -0.15 0
0.65 -0.15 0
0.7 -0.15 0
0.75 -0.15 0
0.8 -0.15 0
0.85 -0.15 0
0.9 -0.15 0
0.95 -0.15 0
1 -0.15 0
1.05 -0.15 0
1.1 -0.15 0
1.15 -0.15 0
1.2 -0.15 0
1.25 -0.15 0
1.3 -0.15 0
1.35 -0.15 0
1.4 -0.15 0
1.45 -0.15 0
1.5 -0.15 0
1.55 -0.15 0
1.6 -0.15 0
1.65 -0.15 0
1.7 -0.15 0
1.75 -0.15 0
1.8 -0.15 0
1.85 -0.15 0
1.9 -0.15 0
1.95 -0.15 0
2 -0.15 0
2.05 -0.15 0
2.1 -0.15 0
2.15 -0.15 0
2.2 -0.15 0
2.25 -0.15 0
2.3 -0.15 0
2.35 -0.15 0
2.4 -0.15 0
2.45 -0.15 0
2.5 -0.15 0
2.55 -0.15 0
2.6 -0.15 0
2.65 -0.15 0
2.7 -0.15 0
2.75 -0.15 0
2.8 -0.15 0
2.85 -0.15 0
2.9 -0.15 0
2.95 -0.15 0
3 -0.15 0
3.05 -0.15 0
3.1 -0.15 0
3.15 -0.15 0
3.2 -0.15 0
3.25 -0.15 0
3.3 -0.15 0
3.35 -0.15 0
3.4 -0.15 0
3.45 -0.15 0
3.5 -0.15 0
3.55 -0.15 0
3.6 -0.15 0
3.65 -0.15 0
3.7 -0.15 0
3.75 -0.15 0
3.8 -0.15 0
3.85 -0.15 0
3.9 -0.15 0
3.95 -0.15 0
4 -0.15 0
4.05 -0.15 0
4.1 -0.15 0
4.15 -0.15 0
4.2 -0.15 0
4.25 -0.15 0
4.3 -0.15 0
4.35 -0.15 0
4.4 -0.15 0
4.45 -0.15 0
4.5 -0.15 0
4.55 -0.15 0
4.6 -0.15 0
4.65 -0.15 0
4.7 -0.15 0
4.75 -0.15 0
4.8 -0.15 0
4.85 -0.15 0
4.9 -0.15 0
4.95 -0.15 0
5 -0.15 0
5.05 -0.15 0
5.1 -0.15 0
5.15 -0.15 0
5.2 -0.15 0
5.25 -0.15 0
5.3 -0.15 0
5.35 -0.15 0
5.4 -0.15 0
5.45 -0.15 0
5.5 -0.15 0
5.55 -0.15 0
5.6 -0.15 0
5.65 -0.15 0
5.7 -0.15 0
5.75 -0.15 0
5.8 -0.15 0
5.85 -0.15 0
5.9 -0.15 0
5.95 -0.15 0
6 -0.15 0
6.05 -0.15 0
6.1 -0.15 0
6.15 -0.15 0
6.2 -0.15 0
6.25 -0.15 0
6.3 -0.15 0
6.35 -0.15 0
6.4 -0.15 0
6.45 -0.15 0
6.5 -0.15 0
6.55 -0.15 0
6.6 -0.15 0
6.65 -0.15 0
6.7 -0.15 0
6.75 -0.15 0
6.8 -0.15 0
6.85 -0.15 0
6.9 -0.15 0
6.95 -0.15 0
7 -0.15 0
7.05 -0.15 0
7.1 -0.15 0
7.15 -0.15 0
7.2 -0.15 0
7.25 -0.15 0
7.3 -0.15 0
7.35 -0.15 0
7.4 -0.15 0
7.45 -0.15 0
7.5 -0.15 0
7.55 -0.15 0
7.6 -0.15 0
7.65 -0.15 0
7.7 -0.15 0
7.75 -0.15 0
7.8 -0.15 0
7.85 -0.15 0
7.9 -0.15 0
7.95 -0.15 0
8 -0.15 0
8.05 -0.15 0
8.1 -0.15 0
8.15 -0.15 0
8.2 -0.15 0
8.25 -0.15 0
8.3 -0.15 0
8.35 -0.15 0
8.4 -0.15 0
8.45 -0.15 0
8.5 -0.15 0
8.55 -0.15 0
8.6 -0.15 0
8.65 -0.15 0
8.7 -0.15 0
8.75 -0.15 0
8.8 -0.15 0
8.85 -0.15 0
8.9 -0.15 0
8.95 -0.15 0
9 -0.15 0
9.05 -0.15 0
9.1 -0.15 0
9.15 -0.15 0
9.2 -0.15 0
9.25 -0.15 0
9.3 -0.15 0
9.35 -0.15 0
9.4 -0.15 0
9.45 -0.15 0
9.5 -0.15 0
9.55 -0.15 0
9.6 -0.15 0
9.65 -0.15 0
9.7 -0.15 0
9.75 -0.15 0
9.8 -0.15 0
9.85 -0.15 0
9.9 -0.15 0
9.95 -0.15 0
10 -0.15 0
0 -0.1 0
0.05 -0.1 0
0.1 -0.1 0
0.15 -0.1 0
0.2 -0.1 0
0.25 -0.1 0
0.3 -0.1 0
0.35 -0.1 0
0.4 -0.1 0
0.45 -0.1 0
0.5 -0.1 0
0.55 -0.1 0
0.6 -0.1 0
0.65 -0.1 0
0.7 -0.1 0
0.75 -0.1 0
0.8 -0.1 0
0.85 -0.1 0
0.9 -0.1 0
0.95 -0.1 0
1 -0.1 0
1.05 -0.1 0
1.1 -0.1 0
1.15 -0.1 0
1.2 -0.1 0
1.25 -0.1 0
1.3 -0.1 0
1.35 -0.1 0
1.4 -0.1 0
1.45 -0.1 0
1.5 -0.1 0
1.55 -0.1 0
1.6 -0.1 0
1.65 -0.1 0
1.7 -0.1 0
1.75 -0.1 0
1.8 -0.1 0
1.85 -0.1 0
1.9 -0.1 0
1.95 -0.1 0
2 -0.1 0
2.05 -0.1 0
2.1 -0.1 0
2.15 -0.1 0
2.2 -0.1 0
2.25 -0.1 0
2.3 -0.1 0
2.35 -0.1 0
2.4 -0.1 0
2.45 -0.1 0
2.5 -0.1 0
2.55 -0.1 0
2.6 -0.1 0
2.65 -0.1 0
2.7 -0.1 0
2.75 -0.1 0
2.8 -0.1 0
2.85 -0.1 0
2.9 -0.1 0
2.95 -0.1 0
3 -0.1 0
3.05 -0.1 0
3.1 -0.1 0
3.15 -0.1 0
3.2 -0.1 0
3.25 -0.1 0
3.3 -0.1 0
3.35 -0.1 0
3.4 -0.1 0
3.45 -0.1 0
3.5 -0.1 0
3.55 -0.1 0
3.6 -0.1 0
3.65 -0.1 0
3.7 -0.1 0
3.75 -0.1 0
3.8 -0.1 0
3.85 -0.1 0
3.9 -0.1 0
3.95 -0.1 0
4 -0.1 0
4.05 -0.1 0
4.1 -0.1 0
4.15 -0.1 0
4.2 -0.1 0
4.25 -0.1 0
4.3 -0.1 0
4.35 -0.1 0
4.4 -0.1 0
4.45 -0.1 0
4.5 -0.1 0
4.55 -0.1 0
4.6 -0.1 0
4.65 -0.1 0
4.7 -0.1 0
4.75 -0.1 0
4.8 -0.1 0
4.85 -0.1 0
4.9 -0.1 0
4.95 -0.1 0
5 -0.1 0
5.05 -0.1 0
5.1 -0.1 0
5.15 -0.1 0
5.2 -0.1 0
5.25 -0.1 0
5.3 -0.1 0
5.35 -0.1 0
5.4 -0.1 0
5.45 -0.1 0
5.5 -0.1 0
5.55 -0.1 0
5.6 -0.1 0
5.65 -0.1 0
5.7 -0.1 0
5.75 -0.1 0
5.8 -0.1 0
5.85 -0.1 0
5.9 -0.1 0
5.95 -0.1 0
6 -0.1 0
6.05 -0.1 0
6.1 -0.1 0
6.15 -0.1 0
6.2 -0.1 0
6.25 -0.1 0
6.3 -0.1 0
6.35 -0.1 0
6.4 -0.1 0
6.45 -0.1 0
6.5 -0.1 0
6.55 -0.1 0
6.6 -0.1 0
6.65 -0.1 0
6.7 -0.1 0
6.75 -0.1 0
6.8 -0.1 0
6.85 -0.1 0
6.9 -0.1 0
6.95 -0.1 0
7 -0.1 0
7.05 -0.1 0
7.1 -0.1 0
7.15 -0.1 0
7.2 -0.1 0
7.25 -0.1 0
7.3 -0.1 0
7.35 -0.1 0
7.4 -0.1 0
7.45 -0.1 0
7.5 -0.1 0
7.55 -0.1 0
7.6 -0.1 0
7.65 -0.1 0
7.7 -0.1 0
7.75 -0.1 0
7.8 -0.1 0
7.85 -0.1 0
7.9 -0.1 0
7.95 -0.1 0
8 -0.1 0
8.05 -0.1 0
8.1 -0.1 0
8.15 -0.1 0
8.2 -0.1 0
8.25 -0.1 0
8.3 -0.1 0
8.35 -0.1 0
8.4 -0.1 0
8.45 -0.1 0
8.5 -0.1 0
8.55 -0.1 0
8.6 -0.1 0
8.65 -0.1 0
8.7 -0.1 0
8.75 -0.1 0
8.8 -0.1 0
8.85 -0.1 0
8.9 -0.1 0
8.95 -0.1 0
9 -0.1 0
9.05 -0.1 0
9.1 -0.1 0
9.15 -0.1 0
9.2 -0.1 0
9.25 -0.1 0
9.3 -0.1 0
9.35 -0.1 0
9.4 -0.1 0
9.45 -0.1 0
9.5 -0.1 0
9.55 -0.1 0
9.6 -0.1 0
9.65 -0.1 0
9.7 -0.1 0
9.75 -0.1 0
9.8 -0.1 0
9.85 -0.1 0
9.9 -0.1 0
9.95 -0.1 0
10 -0.1 0
0 -0.05 0
0.05 -0.05 0
0.1 -0.05 0
0.15 -0.05 0
0.2 -0.05 0
0.25 -0.05 0
0.3 -0.05 0
0.35 -0.05 0
0.4 -0.05 0
0.45 -0.05 0
0.5 -0.05 0
0.55 -0.05 0
0.6 -0.05 0
0.65 -0.05 0
0.7 -0.05 0
0.75 -0.05 0
0.8 -0.05 0
0.85 -0.05 0
0.9 -0.05 0
0.95 -0.05 0
1 -0.05 0
1.05 -0.05 0
1.1 -0.05 0
1.15 -0.05 0
1.2 -0.05 0
1.25 -0.05 0
1.3 -0.05 0
1.35 -0.05 0
1.4 -0.05 0
1.45 -0.05 0
1.5 -0.05 0
1.55 -0.05 0
1.6 -0.05 0
1.65 -0.05 0
1.7 -0.05 0
1.75 -0.05 0
1.8 -0.05 0
1.85 -0.05 0
1.9 -0.05 0
1.95 -0.05 0
2 -0.05 0
2.05 -0.05 0
2.1 -0.05 0
2.15 -0.05 0
2.2 -0.05 0
2.25 -0.05 0
2.3 -0.05 0
2.35 -0.05 0
2.4 -0.05 0
2.45 -0.05 0
2.5 -0.05 0
2.55 -0.05 0
2.6 -0.05 0
2.65 -0.05 0
2.7 -0.05 0
2.75 -0.05 0
2.8 -0.05 0
2.85 -0.05 0
2.9 -0.05 0
2.95 -0.05 0
3 -0.05 0
3.05 -0.05 0
3.1 -0.05 0
3.15 -0.05 0
3.2 -0.05 0
3.25 -0.05 0
3.3 -0.05 0
3.35 -0.05 0
3.4 -0.05 0
3.45 -0.05 0
3.5 -0.05 0
3.55 -0.05 0
3.6 -0.05 0
3.65 -0.05 0
3.7 -0.05 0
3.75 -0.05 0
3.8 -0.05 0
3.85 -0.05 0
3.9 -0.05 0
3.95 -0.05 0
4 -0.05 0
4.05 -0.05 0
4.1 -0.05 0
4.15 -0.05 0
4.2 -0.05 0
4.25 -0.05 0
4.3 -0.05 0
4.35 -0.05 0
4.4 -0.05 0
4.45 -0.05 0
4.5 -0.05 0
4.55 -0.05 0
4.6 -0.05 0
4.65 -0.05 0
4.7 -0.05 0
4.75 -0.05 0
4.8 -0.05 0
4.85 -0.05 0
4.9 -0.05 0
4.95 -0.05 0
5 -0.05 0
5.05 -0.05 0
5.1 -0.05 0
5.15 -0.05 0
5.2 -0.05 0
5.25 -0.05 0
5.3 -0.05 0
5.35 -0.05 0
5.4 -0.05 0
5.45 -0.05 0
5.5 -0.05 0
5.55 -0.05 0
5.6 -0.05 0
5.65 -0.05 0
5.7 -0.05 0
5.75 -0.05 0
5.8 -0.05 0
5.85 -0.05 0
5.9 -0.05 0
5.95 -0.05 0
6 -0.05 0
6.05 -0.05 0
6.1 -0.05 0
6.15 -0.05 0
6.2 -0.05 0
6.25 -0.05 0
6.3 -0.05 0
6.35 -0.05 0
6.4 -0.05 0
6.45 -0.05 0
6.5 -0.05 0
6.55 -0.05 0
6.6 -0.05 0
6.65 -0.05 0
6.7 -0.05 0
6.75 -0.05 0
6.8 -0.05 0
6.85 -0.05 0
6.9 -0.05 0
6.95 -0.05 0
7 -0.05 0
7.05 -0.05 0
7.1 -0.05 0
7.15 -0.05 0
7.2 -0.05 0
7.25 -0.05 0
7.3 -0.05 0
7.35 -0.05 0
7.4 -0.05 0
7.45 -0.05 0
7.5 -0.05 0
7.55 -0.05 0
7.6 -0.05 0
7.65 -0.05 0
7.7 -0.05 0
7.75 -0.05 0
7.8 -0.05 0
7.85 -0.05 0
7.9 -0.05 0
7.95 -0.05 0
8 -0.05 0
8.05 -0.05 0
8.1 -0.05 0
8.15 -0.05 0
8.2 -0.05 0
8.25 -0.05 0
8.3 -0.05 0
8.35 -0.05 0
8.4 -0.05 0
8.45 -0.05 0
8.5 -0.05 0
8.55 -0.05 0
8.6 -0.05 0
8.65 -0.05 0
8.7 -0.05 0
8.75 -0.05 0
8.8 -0.05 0
8.85 -0.05 0
8.9 -0.05 0
8.95 -0.05 0
9 -0.05 0
9.05 -0.05 0
9.1 -0.05 0
9.15 -0.05 0
9.2 -0.05 0
9.25 -0.05 0
9.3 -0.05 0
9.35 -0.05 0
9.4 -0.05 0
9.45 -0.05 0
9.5 -0.05 0
9.55 -0.05 0
9.6 -0.05 0
9.65 -0.05 0
9.7 -0.05 0
9.75 -0.05 0
9.8 -0.05 0
9.85 -0.05 0
9.9 -0.05 0
9.95 -0.05 0
10 -0.05 0
0 0 0
0.05 0 0
0.1 0 0
0.15 0 0
0.2 0 0
0.25 0 0
0.3 0 0
0.35 0 0
0.4 0 0
0.45 0 0
0.5 0 0
0.55 0 0
0.6 0 0
0.65 0 0
0.7 0 0
0.75 0 0
0.8 0 0
0.85 0 0
0.9 0 0
0.95 0 0
1 0 0
1.05 0 0
1.1 0 0
1.15 0 0
1.2 0 0
1.25 0 0
1.3 0 0
1.35 0 0
1.4 0 0
1.45 0 0
1.5 0 0
1.55 0 0
1.6 0 0
1.65 0 0
1.7 0 0
1.75 0 0
1.8 0 0
1.85 0 0
1.9 0 0
1.95 0 0
2 0 0
2.05 0 0
2.1 0 0
2.15 0 0
2.2 0 0
2.25 0 0
2.3 0 0
2.35 0 0
2.4 0 0
2.45 0 0
2.5 0 0
2.55 0 0
2.6 0 0
2.65 0 0
2.7 0 0
2.75 0 0
2.8 0 0
2.85 0 0
2.9 0 0
2.95 0 0
3 0 0
3.05 0 0
3.1 0 0
3.15 0 0
3.2 0 0
3.25 0 0
3.3 0 0
3.35 0 0
3.4 0 0
3.45 0 0
3.5 0 0
3.55 0 0
3.6 0 0
3.65 0 0
3.7 0 0
3.75 0 0
3.8 0 0
3.85 0 0
3.9 0 0
3.95 0 0
4 0 0
4.05 0 0
4.1 0 0
4.15 0 0
4.2 0 0
4.25 0 0
4.3 0 0
4.35 0 0
4.4 0 0
4.45 0 0
4.5 0 0
4.55 0 0
4.6 0 0
4.65 0 0
4.7 0 0
4.75 0 0
4.8 0 0
4.85 0 0
4.9 0 0
4.95 0 0
5 0 0
5.05 0 0
5.1 0 0
5.15 0 0
5.2 0 0
5.25 0 0
5.3 0 0
5.35 0 0
5.4 0 0
5.45 0 0
5.5 0 0
5.55 0 0
5.6 0 0
5.65 0 0
5.7 0 0
5.75 0 0
5.8 0 0
5.85 0 0
5.9 0 0
5.95 0 0
6 0 0
6.05 0 0
6.1 0 0
6.15 0 0
6.2 0 0
6.25 0 0
6.3 0 0
6.35 0 0
6.4 0 0
6.45 0 0
6.5 0 0
6.55 0 0
6.6 0 0
6.65 0 0
6.7 0 0
6.75 0 0
6.8 0 0
6.85 0 0
6.9 0 0
6.95 0 0
7 0 0
7.05 0 0
7.1 0 0
7.15 0 0
7.2 0 0
7.25 0 0
7.3 0 0
7.35 0 0
7.4 0 0
7.45 0 0
7.5 0 0
7.55 0 0
7.6 0 0
7.65 0 0
7.7 0 0
7.75 0 0
7.8 0 0
7.85 0 0
7.9 0 0
7.95 0 0
8 0 0
8.05 0 0
8.1 0 0
8.15 0 0
8.2 0 0
8.25 0 0
8.3 0 0
8.35 0 0
8.4 0 0
8.45 0 0
8.5 0 0
8.55 0 0
8.6 0 0
8.65 0 0
8.7 0 0
8.75 0 0
8.8 0 0
8.85 0 0
8.9 0 0
8.95 0 0
9 0 0
9.05 0 0
9.1 0 0
9.15 0 0
9.2 0 0
9.25 0 0
9.3 0 0
9.35 0 0
9.4 0 0
9.45 0 0
9.5 0 0
9.55 0 0
9.6 0 0
9.65 0 0
9.7 0 0
9.75 0 0
9.8 0 0
9.85 0 0
9.9 0 0
9.95 0 0
10 0 0
0 0.05 0
0.05 0.05 0
0.1 0.05 0
0.15 0.05 0
0.2 0.05 0
0.25 0.05 0
0.3 0.05 0
0.35 0.05 0
0.4 0.05 0
0.45 0.05 0
0.5 0.05 0
0.55 0.05 0
0.6 0.05 0
0.65 0.05 0
0.7 0.05 0
0.75 0.05 0
0.8 0.05 0
0.85 0.05 0
0.9 0.05 0
0.95 0.05 0
1 0.05 0
1.05 0.05 0
1.1 0.05 0
1.15 0.05 0
1.2 0.05 0
1.25 0.05 0
1.3 0.05 0
1.35 0.05 0
1.4 0.05 0
1.45 0.05 0
1.5 0.05 0
1.55 0.05 0
1.6 0.05 0
1.65 0.05 0
1.7 0.05 0
1.75 0.05 0
1.8 0.05 0
1.85 0.05 0
1.9 0.05 0
1.95 0.05 0
2 0.05 0
2.05 0.05 0
2.1 0.05 0
2.15 0.05 0
2.2 0.05 0
2.25 0.05 0
2.3 0.05 0
2.35 0.05 0
2.4 0.05 0
2.45 0.05 0
2.5 0.05 0
2.55 0.05 0
2.6 0.05 0
2.65 0.05 0
2.7 0.05 0
2.75 0.05 0
2.8 0.05 0
2.85 0.05 0
2.9 0.05 0
2.95 0.05 0
3 0.05 0
3.05 0.05 0
3.1 0.05 0
3.15 0.05 0
3.2 0.05 0
3.25 0.05 0
3.3 0.05 0
3.35 0.05 0
3.4 0.05 0
3.45 0.05 0
3.5 0.05 0
3.55 0.05 0
3.6 0.05 0
3.65 0.05 0
3.7 0.05 0
3.75 0.05 0
3.8 0.05 0
3.85 0.05 0
3.9 0.05 0
3.95 0.05 0
4 0.05 0
4.05 0.05 0
4.1 0.05 0
4.15 0.05 0
4.2 0.05 0
4.25 0.05 0
4.3 0.05 0
4.35 0.05 0
4.4 0.05 0
4.45 0.05 0
4.5 0.05 0
4.55 0.05 0
4.6 0.05 0
4.65 0.05 0
4.7 0.05 0
4.75 0.05 0
4.8 0.05 0
4.85 0.05 0
4.9 0.05 0
4.95 0.05 0
5 0.05 0
5.05 0.05 0
5.1 0.05 0
5.15 0.05 0
5.2 0.05 0
5.25 0.05 0
5.3 0.05 0
5.35 0.05 0
5.4 0.05 0
5.45 0.05 0
5.5 0.05 0
5.55 0.05 0
5.6 0.05 0
5.65 0.05 0
5.7 0.05 0
5.75 0.05 0
5.8 0.05 0
5.85 0.05 0
5.9 0.05 0
5.95 0.05 0
6 0.05 0
6.05 0.05 0
6.1 0.05 0
6.15 0.05 0
6.2 0.05 0
6.25 0.05 0
6.3 0.05 0
6.35 0.05 0
6.4 0.05 0
6.45 0.05 0
6.5 0.05 0
6.55 0.05 0
6.6 0.05 0
6.65 0.05 0
6.7 0.05 0
6.75 0.05 0
6.8 0.05 0
6.85 0.05 0
6.9 0.05 0
6.95 0.05 0
7 0.05 0
7.05 0.05 0
7.1 0.05 0
7.15 0.05 0
7.2 0.05 0
7.25 0.05 0
7.3 0.05 0
7.35 0.05 0
7.4 0.05 0
7.45 0.05 0
7.5 0.05 0
7.55 0.05 0
7.6 0.05 0
7.65 0.05 0
7.7 0.05 0
7.75 0.05 0
7.8 0.05 0
7.85 0.05 0
7.9 0.05 0
7.95 0.05 0
8 0.05 0
8.05 0.05 0
8.1 0.05 0
8.15 0.05 0
8.2 0.05 0
8.25 0.05 0
8.3 0.05 0
8.35 0.05 0
8.4 0.05 0
8.45 0.05 0
8.5 0.05 0
8.55 0.05 0
8.6 0.05 0
8.65 0.05 0
8.7 0.05 0
8.75 0.05 0
8.8 0.05 0
8.85 0.05 0
8.9 0.05 0
8.95 0.05 0
9 0.05 0
9.05 0.05 0
9.1 0.05 0
9.15 0.05 0
9.2 0.05 0
9.25 0.05 0
9.3 0.05 0
9.35 0.05 0
9.4 0.05 0
9.45 0.05 0
9.5 0.05 0
9.55 0.05 0
9.6 0.05 0
9.65 0.05 0
9.7 0.05 0
9.75 0.05 0
9.8 0.05 0
9.85 0.05 0
9.9 0.05 0
9.95 0.05 0
10 0.05 0
0 0.1 0
0.05 0.1 0
0.1 0.1 0
0.15 0.1 0
0.2 0.1 0
0.25 0.1 0
0.3 0.1 0
0.35 0.1 0
0.4 0.1 0
0.45 0.1 0
0.5 0.1 0
0.55 0.1 0
0.6 0.1 0
0.65 0.1 0
0.7 0.1 0
0.75 0.1 0
0.8 0.1 0
0.85 0.1 0
0.9 0.1 0
0.95 0.1 0
1 0.1 0
1.05 0.1 0
1.1 0.1 0
1.15 0.1 0
1.2 0.1 0
1.25 0.1 0
1.3 0.1 0
1.35 0.1 0
1.4 0.1 0
1.45 0.1 0
1.5 0.1 0
1.55 0.1 0
1.6 0.1 0
1.65 0.1 0
1.7 0.1 0
1.75 0.1 0
1.8 0.1 0
1.85 0.1 0
1.9 0.1 0
1.95 0.1 0
2 0.1 0
2.05 0.1 0
2.1 0.1 0
2.15 0.1 0
2.2 0.1 0
2.25 0.1 0
2.3 0.1 0
2.35 0.1 0
2.4 0.1 0
2.45 0.1 0
2.5 0.1 0
2.55 0.1 0
2.6 0.1 0
2.65 0.1 0
2.7 0.1 0
2.75 0.1 0
2.8 0.1 0
2.85 0.1 0
2.9 0.1 0
2.95 0.1 0
3 0.1 0
3.05 0.1 0
3.1 0.1 0
3.15 0.1 0
3.2 0.1 0
3.25 0.1 0
3.3 0.1 0
3.35 0.1 0
3.4 0.1 0
3.45 0.1 0
3.5 0.1 0
3.55 0.1 0
3.6 0.1 0
3.65 0.1 0
3.7 0.1 0
3.75 0.1 0
3.8 0.1 0
3.85 0.1 0
3.9 0.1 0
3.95 0.1 0
4 0.1 0
4.05 0.1 0
4.1 0.1 0
4.15 0.1 0
4.2 0.1 0
4.25 0.1 0
4.3 0.1 0
4.35 0.1 0
4.4 0.1 0
4.45 0.1 0
4.5 0.1 0
4.55 0.1 0
4.6 0.1 0
4.65 0.1 0
4.7 0.1 0
4.75 0.1 0
4.8 0.1 0
4.85 0.1 0
4.9 0.1 0
4.95 0.1 0
5 0.1 0
5.05 0.1 0
5.1 0.1 0
5.15 0.1 0
5.2 0.1 0
5.25 0.1 0
5.3 0.1 0
5.35 0.1 0
5.4 0.1 0
5.45 0.1 0
5.5 0.1 0
5.55 0.1 0
5.6 0.1 0
5.65 0.1 0
5.7 0.1 0
5.75 0.1 0
5.8 0.1 0
5.85 0.1 0
5.9 0.1 0
5.95 0.1 0
6 0.1 0
6.05 0.1 0
6.1 0.1 0
6.15 0.1 0
6.2 0.1 0
6.25 0.1 0
6.3 0.1 0
6.35 0.1 0
6.4 0.1 0
6.45 0.1 0
6.5 0.1 0
6.55 0.1 0
6.6 0.1 0
6.65 0.1 0
6.7 0.1 0
6.75 0.1 0
6.8 0.1 0
6.85 0.1 0
6.9 0.1 0
6.95 0.1 0
7 0.1 0
7.05 0.1 0
7.1 0.1 0
7.15 0.1 0
7.2 0.1 0
7.25 0.1 0
7.3 0.1 0
7.35 0.1 0
7.4 0.1 0
7.45 0.1 0
7.5 0.1 0
7.55 0.1 0
7.6 0.1 0
7.65 0.1 0
7.7 0.1 0
7.75 0.1 0
7.8 0.1 0
7.85 0.1 0
7.9 0.1 0
7.95 0.1 0
8 0.1 0
8.05 0.1 0
8.1 0.1 0
8.15 0.1 0
8.2 0.1 0
8.25 0.1 0
8.3 0.1 0
8.35 0.1 0
8.4 0.1 0
8.45 0.1 0
8.5 0.1 0
8.55 0.1 0
8.6 0.1 0
8.65 0.1 0
8.7 0.1 0
8.75 0.1 0
8.8 0.1 0
8.85 0.1 0
8.9 0.1 0
8.95 0.1 0
9 0.1 0
9.05 0.1 0
9.1 0.1 0
9.15 0.1 0
9.2 0.1 0
9.25 0.1 0
9.3 0.1 0
9.35 0.1 0
9.4 0.1 0
9.45 0.1 0
9.5 0.1 0
9.55 0.1 0
9.6 0.1 0
9.65 0.1 0
9.7 0.1 0
9.75 0.1 0
9.8 0.1 0
9.85 0.1 0
9.9 0.1 0
9.95 0.1 0
10 0.1 0
0 0.15 0
0.05 0.15 0
0.1 0.15 0
0.15 0.15 0
0.2 0.15 0
0.25 0.15 0
0.3 0.15 0
0.35 0.15 0
0.4 0.15 0
0.45 0.15 0
0.5 0.15 0
0.55 0.15 0
0.6 0.15 0
0.65 0.15 0
0.7 0.15 0
0.75 0.15 0
0.8 0.15 0
0.85 0.15 0
0.9 0.15 0
0.95 0.15 0
1 0.15 0
1.05 0.15 0
1.1 0.15 0
1.15 0.15 0
1.2 0.15 0
1.25 0.15 0
1.3 0.15 0
1.35 0.15 0
1.4 0.15 0
1.45 0.15 0
1.5 0.15 0
1.55 0.15 0
1.6 0.15 0
1.65 0.15 0
1.7 0.15 0
1.75 0.15 0
1.8 0.15 0
1.85 0.15 0
1.9 0.15 0
1.95 0.15 0
2 0.15 0
2.05 0.15 0
2.1 0.15 0
2.15 0.15 0
2.2 0.15 0
2.25 0.15 0
2.3 0.15 0
2.35 0.15 0
2.4 0.15 0
2.45 0.15 0
2.5 0.15 0
2.55 0.15 0
2.6 0.15 0
2.65 0.15 0
2.7 0.15 0
2.75 0.15 0
2.8 0.15 0
2.85 0.15 0
2.9 0.15 0
2.95 0.15 0
3 0.15 0
3.05 0.15 0
3.1 0.15 0
3.15 0.15 0
3.2 0.15 0
3.25 0.15 0
3.3 0.15 0
3.35 0.15 0
3.4 0.15 0
3.45 0.15 0
3.5 0.15 0
3.55 0.15 0
3.6 0.15 0
3.65 0.15 0
3.7 0.15 0
3.75 0.15 0
3.8 0.15 0
3.85 0.15 0
3.9 0.15 0
3.95 0.15 0
4 0.15 0
4.05 0.15 0
4.1 0.15 0
4.15 0.15 0
4.2 0.15 0
4.25 0.15 0
4.3 0.15 0
4.35 0.15 0
4.4 0.15 0
4.45 0.15 0
4.5 0.15 0
4.55 0.15 0
4.6 0.15 0
4.65 0.15 0
4.7 0.15 0
4.75 0.15 0
4.8 0.15 0
4.85 0.15 0
4.9 0.15 0
4.95 0.15 0
5 0.15 0
5.05 0.15 0
5.1 0.15 0
5.15 0.15 0
5.2 0.15 0
5.25 0.15 0
5.3 0.15 0
5.35 0.15 0
5.4 0.15 0
5.45 0.15 0
5.5 0.15 0
5.55 0.15 0
5.6 0.15 0
5.65 0.15 0
5.7 0.15 0
5.75 0.15 0
5.8 0.15 0
5.85 0.15 0
5.9 0.15 0
5.95 0.15 0
6 0.15 0
6.05 0.15 0
6.1 0.15 0
6.15 0.15 0
6.2 0.15 0
6.25 0.15 0
6.3 0.15 0
6.35 0.15 0
6.4 0.15 0
6.45 0.15 0
6.5 0.15 0
6.55 0.15 0
6.6 0.15 0
6.65 0.15 0
6.7 0.15 0
6.75 0.15 0
6.8 0.15 0
6.85 0.15 0
6.9 0.15 0
6.95 0.15 0
7 0.15 0
7.05 0.15 0
7.1 0.15 0
7.15 0.15 0
7.2 0.15 0
7.25 0.15 0
7.3 0.15 0
7.35 0.15 0
7.4 0.15 0
7.45 0.15 0
7.5 0.15 0
7.55 0.15 0
7.6 0.15 0
7.65 0.15 0
7.7 0.15 0
7.75 0.15 0
7.8 0.15 0
7.85 0.15 0
7.9 0.15 0
7.95 0.15 0
8 0.15 0
8.05 0.15 0
8.1 0.15 0
8.15 0.15 0
8.2 0.15 0
8.25 0.15 0
8.3 0.15 0
8.35 0.15 0
8.4 0.15 0
8.45 0.15 0
8.5 0.15 0
8.55 0.15 0
8.6 0.15 0
8.65 0.15 0
8.7 0.15 0
8.75 0.15 0
8.8 0.15 0
8.85 0.15 0
8.9 0.15 0
8.95 0.15 0
9 0.15 0
9.05 0.15 0
9.1 0.15 0
9.15 0.15 0
9.2 0.15 0
9.25 0.15 0
9.3 0.15 0
9.35 0.15 0
9.4 0.15 0
9.45 0.15 0
9.5 0.15 0
9.55 0.15 0
9.6 0.15 0
9.65 0.15 0
9.7 0.15 0
9.75 0.15 0
9.8 0.15 0
9.85 0.15 0
9.9 0.15 0
9.95 0.15 0
10 0.15 0
0 0.2 0
0.05 0.2 0
0.1 0.2 0
0.15 0.2 0
0.2 0.2 0
0.25 0.2 0
0.3 0.2 0
0.35 0.2 0
0.4 0.2 0
0.45 0.2 0
0.5 0.2 0
0.55 0.2 0
0.6 0.2 0
0.65 0.2 0
0.7 0.2 0
0.75 0.2 0
0.8 0.2 0
0.85 0.2 0
0.9 0.2 0
0.95 0.2 0
1 0.2 0
1.05 0.2 0
1.1 0.2 0
1.15 0.2 0
1.2 0.2 0
1.25 0.2 0
1.3 0.2 0
1.35 0.2 0
1.4 0.2 0
1.45 0.2 0
1.5 0.2 0
1.55 0.2 0
1.6 0.2 0
1.65 0.2 0
1.7 0.2 0
1.75 0.2 0
1.8 0.2 0
1.85 0.2 0
1.9 0.2 0
1.95 0.2 0
2 0.2 0
2.05 0.2 0
2.1 0.2 0
2.15 0.2 0
2.2 0.2 0
2.25 0.2 0
2.3 0.2 0
2.35 0.2 0
2.4 0.2 0
2.45 0.2 0
2.5 0.2 0
2.55 0.2 0
2.6 0.2 0
2.65 0.2 0
2.7 0.2 0
2.75 0.2 0
2.8 0.2 0
2.85 0.2 0
2.9 0.2 0
2.95 0.2 0
3 0.2 0
3.05 0.2 0
3.1 0.2 0
3.15 0.2 0
3.2 0.2 0
3.25 0.2 0
3.3 0.2 0
3.35 0.2 0
3.4 0.2 0
3.45 0.2 0
3.5 0.2 0
3.55 0.2 0
3.6 0.2 0
3.65 0.2 0
3.7 0.2 0
3.75 0.2 0
3.8 0.2 0
3.85 0.2 0
3.9 0.2 0
3.95 0.2 0
4 0.2 0
4.05 0.2 0
4.1 0.2 0
4.15 0.2 0
4.2 0.2 0
4.25 0.2 0
4.3 0.2 0
4.35 0.2 0
4.4 0.2 0
4.45 0.2 0
4.5 0.2 0
4.55 0.2 0
4.6 0.2 0
4.65 0.2 0
4.7 0.2 0
4.75 0.2 0
4.8 0.2 0
4.85 0.2 0
4.9 0.2 0
4.95 0.2 0
5 0.2 0
5.05 0.2 0
5.1 0.2 0
5.15 0.2 0
5.2 0.2 0
5.25 0.2 0
5.3 0.2 0
5.35 0.2 0
5.4 0.2 0
5.45 0.2 0
5.5 0.2 0
5.55 0.2 0
5.6 0.2 0
5.65 0.2 0
5.7 0.2 0
5.75 0.2 0
5.8 0.2 0
5.85 0.2 0
5.9 0.2 0
5.95 0.2 0
6 0.2 0
6.05 0.2 0
6.1 0.2 0
6.15 0.2 0
6.2 0.2 0
6.25 0.2 0
6.3 0.2 0
6.35 0.2 0
6.4 0.2 0
6.45 0.2 0
6.5 0.2 0
6.55 0.2 0
6.6 0.2 0
6.65 0.2 0
6.7 0.2 0
6.75 0.2 0
6.8 0.2 0
6.85 0.2 0
6.9 0.2 0
6.95 0.2 0
7 0.2 0
7.05 0.2 0
7.1 0.2 0
7.15 0.2 0
7.2 0.2 0
7.25 0.2 0
7.3 0.2 0
7.35 0.2 0
7.4 0.2 0
7.45 0.2 0
7.5 0.2 0
7.55 0.2 0
7.6 0.2 0
7.65 0.2 0
7.7 0.2 0
7.75 0.2 0
7.8 0.2 0
7.85 0.2 0
7.9 0.2 0
7.95 0.2 0
8 0.2 0
8.05 0.2 0
8.1 0.2 0
8.15 0.2 0
8.2 0.2 0
8.25 0.2 0
8.3 0.2 0
8.35 0.2 0
8.4 0.2 0
8.45 0.2 0
8.5 0.2 0
8.55 0.2 0
8.6 0.2 0
8.65 0.2 0
8.7 0.2 0
8.75 0.2 0
8.8 0.2 0
8.85 0.2 0
8.9 0.2 0
8.95 0.2 0
9 0.2 0
9.05 0.2 0
9.1 0.2 0
9.15 0.2 0
9.2 0.2 0
9.25 0.2 0
9.3 0.2 0
9.35 0.2 0
9.4 0.2 0
9.45 0.2 0
9.5 0.2 0
9.55 0.2 0
9.6 0.2 0
9.65 0.2 0
9.7 0.2 0
9.75 0.2 0
9.8 0.2 0
9.85 0.2 0
9.9 0.2 0
9.95 0.2 0
10 0.2 0
0 0.25 0
0.05 0.25 0
0.1 0.25 0
0.15 0.25 0
0.2 0.25 0
0.25 0.25 0
0.3 0.25 0
0.35 0.25 0
0.4 0.25 0
0.45 0.25 0
0.5 0.25 0
0.55 0.25 0
0.6 0.25 0
0.65 0.25 0
0.7 0.25 0
0.75 0.25 0
0.8 0.25 0
0.85 0.25 0
0.9 0.25 0
0.95 0.25 0
1 0.25 0
1.05 0.25 0
1.1 0.25 0
1.15 0.25 0
1.2 0.25 0
1.25 0.25 0
1.3 0.25 0
1.35 0.25 0
1.4 0.25 0
1.45 0.25 0
1.5 0.25 0
1.55 0.25 0
1.6 0.25 0
1.65 0.25 0
1.7 0.25 0
1.75 0.25 0
1.8 0.25 0
1.85 0.25 0
1.9 0.25 0
1.95 0.25 0
2 0.25 0
2.05 0.25 0
2.1 0.25 0
2.15 0.25 0
2.2 0.25 0
2.25 0.25 0
2.3 0.25 0
2.35 0.25 0
2.4 0.25 0
2.45 0.25 0
2.5 0.25 0
2.55 0.25 0
2.6 0.25 0
2.65 0.25 0
2.7 0.25 0
2.75 0.25 0
2.8 0.25 0
2.85 0.25 0
2.9 0.25 0
2.95 0.25 0
3 0.25 0
3.05 0.25 0
3.1 0.25 0
3.15 0.25 0
3.2 0.25 0
3.25 0.25 0
3.3 0.25 0
3.35 0.25 0
3.4 0.25 0
3.45 0.25 0
3.5 0.25 0
3.55 0.25 0
3.6 0.25 0
3.65 0.25 0
3.7 0.25 0
3.75 0.25 0
3.8 0.25 0
3.85 0.25 0
3.9 0.25 0
3.95 0.25 0
4 0.25 0
4.05 0.25 0
4.1 0.25 0
4.15 0.25 0
4.2 0.25 0
4.25 0.25 0
4.3 0.25 0
4.35 0.25 0
4.4 0.25 0
4.45 0.25 0
4.5 0.25 0
4.55 0.25 0
4.6 0.25 0
4.65 0.25 0
4.7 0.25 0
4.75 0.25 0
4.8 0.25 0
4.85 0.25 0
4.9 0.25 0
4.95 0.25 0
5 0.25 0
5.05 0.25 0
5.1 0.25 0
5.15 0.25 0
5.2 0.25 0
5.25 0.25 0
5.3 0.25 0
5.35 0.25 0
5.4 0.25 0
5.45 0.25 0
5.5 0.25 0
5.55 0.25 0
5.6 0.25 0
5.65 0.25 0
5.7 0.25 0
5.75 0.25 0
5.8 0.25 0
5.85 0.25 0
5.9 0.25 0
5.95 0.25 0
6 0.25 0
6.05 0.25 0
6.1 0.25 0
6.15 0.25 0
6.2 0.25 0
6.25 0.25 0
6.3 0.25 0
6.35 0.25 0
6.4 0.25 0
6.45 0.25 0
6.5 0.25 0
6.55 0.25 0
6.6 0.25 0
6.65 0.25 0
6.7 0.25 0
6.75 0.25 0
6.8 0.25 0
6.85 0.25 0
6.9 0.25 0
6.95 0.25 0
7 0.25 0
7.05 0.25 0
7.1 0.25 0
7.15 0.25 0
7.2 0.25 0
7.25 0.25 0
7.3 0.25 0
7.35 0.25 0
7.4 0.25 0
7.45 0.25 0
7.5 0.25 0
7.55 0.25 0
7.6 0.25 0
7.65 0.25 0
7.7 0.25 0
7.75 0.25 0
7.8 0.25 0
7.85 0.25 0
7.9 0.25 0
7.95 0.25 0
8 0.25 0
8.05 0.25 0
8.1 0.25 0
8.15 0.25 0
8.2 0.25 0
8.25 0.25 0
8.3 0.25 0
8.35 0.25 0
8.4 0.25 0
8.45 0.25 0
8.5 0.25 0
8.55 0.25 0
8.6 0.25 0
8.65 0.25 0
8.7 0.25 0
8.75 0.25 0
8.8 0.25 0
8.85 0.25 0
8.9 0.25 0
8.95 0.25 0
9 0.25 0
9.05 0.25 0
9.1 0.25 0
9.15 0.25 0
9.2 0.25 0
9.25 0.25 0
9.3 0.25 0
9.35 0.25 0
9.4 0.25 0
9.45 0.25 0
9.5 0.25 0
9.55 0.25 0
9.6 0.25 0
9.65 0.25 0
9.7 0.25 0
9.75 0.25 0
9.8 0.25 0
9.85 0.25 0
9.9 0.25 0
9.95 0.25 0
10 0.25 0
0 0.3 0
0.05 0.3 0
0.1 0.3 0
0.15 0.3 0
0.2 0.3 0
0.25 0.3 0
0.3 0.3 0
0.35 0.3 0
0.4 0.3 0
0.45 0.3 0
0.5 0.3 0
0.55 0.3 0
0.6 0.3 0
0.65 0.3 0
0.7 0.3 0
0.75 0.3 0
0.8 0.3 0
0.85 0.3 0
0.9 0.3 0
0.95 0.3 0
1 0.3 0
1.05 0.3 0
1.1 0.3 0
1.15 0.3 0
1.2 0.3 0
1.25 0.3 0
1.3 0.3 0
1.35 0.3 0
1.4 0.3 0
1.45 0.3 0
1.5 0.3 0
1.55 0.3 0
1.6 0.3 0
1.65 0.3 0
1.7 0.3 0
1.75 0.3 0
1.8 0.3 0
1.85 0.3 0
1.9 0.3 0
1.95 0.3 0
2 0.3 0
2.05 0.3 0
2.1 0.3 0
2.15 0.3 0
2.2 0.3 0
2.25 0.3 0
2.3 0.3 0
2.35 0.3 0
2.4 0.3 0
2.45 0.3 0
2.5 0.3 0
2.55 0.3 0
2.6 0.3 0
2.65 0.3 0
2.7 0.3 0
2.75 0.3 0
2.8 0.3 0
2.85 0.3 0
2.9 0.3 0
2.95 0.3 0
3 0.3 0
3.05 0.3 0
3.1 0.3 0
3.15 0.3 0
3.2 0.3 0
3.25 0.3 0
3.3 0.3 0
3.35 0.3 0
3.4 0.3 0
3.45 0.3 0
3.5 0.3 0
3.55 0.3 0
3.6 0.3 0
3.65 0.3 0
3.7 0.3 0
3.75 0.3 0
3.8 0.3 0
3.85 0.3 0
3.9 0.3 0
3.95 0.3 0
4 0.3 0
4.05 0.3 0
4.1 0.3 0
4.15 0.3 0
4.2 0.3 0
4.25 0.3 0
4.3 0.3 0
4.35 0.3 0
4.4 0.3 0
4.45 0.3 0
4.5 0.3 0
4.55 0.3 0
4.6 0.3 0
4.65 0.3 0
4.7 0.3 0
4.75 0.3 0
4.8 0.3 0
4.85 0.3 0
4.9 0.3 0
4.95 0.3 0
5 0.3 0
5.05 0.3 0
5.1 0.3 0
5.15 0.3 0
5.2 0.3 0
5.25 0.3 0
5.3 0.3 0
5.35 0.3 0
5.4 0.3 0
5.45 0.3 0
5.5 0.3 0
5.55 0.3 0
5.6 0.3 0
5.65 0.3 0
5.7 0.3 0
5.75 0.3 0
5.8 0.3 0
5.85 0.3 0
5.9 0.3 0
5.95 0.3 0
6 0.3 0
6.05 0.3 0
6.1 0.3 0
6.15 0.3 0
6.2 0.3 0
6.25 0.3 0
6.3 0.3 0
6.35 0.3 0
6.4 0.3 0
6.45 0.3 0
6.5 0.3 0
6.55 0.3 0
6.6 0.3 0
6.65 0.3 0
6.7 0.3 0
6.75 0.3 0
6.8 0.3 0
6.85 0.3 0
6.9 0.3 0
6.95 0.3 0
7 0.3 0
7.05 0.3 0
7.1 0.3 0
7.15 0.3 0
7.2 0.3 0
7.25 0.3 0
7.3 0.3 0
7.35 0.3 0
7.4 0.3 0
7.45 0.3 0
7.5 0.3 0
7.55 0.3 0
7.6 0.3 0
7.65 0.3 0
7.7 0.3 0
7.75 0.3 0
7.8 0.3 0
7.85 0.3 0
7.9 0.3 0
7.95 0.3 0
8 0.3 0
8.05 0.3 0
8.1 0.3 0
8.15 0.3 0
8.2 0.3 0
8.25 0.3 0
8.3 0.3 0
8.35 0.3 0
8.4 0.3 0
8.45 0.3 0
8.5 0.3 0
8.55 0.3 0
8.6 0.3 0
8.65 0.3 0
8.7 0.3 0
8.75 0.3 0
8.8 0.3 0
8.85 0.3 0
8.9 0.3 0
8.95 0.3 0
9 0.3 0
9.05 0.3 0
9.1 0.3 0
9.15 0.3 0
9.2 0.3 0
9.25 0.3 0
9.3 0.3 0
9.35 0.3 0
9.4 0.3 0
9.45 0.3 0
9.5 0.3 0
9.55 0.3 0
9.6 0.3 0
9.65 0.3 0
9.7 0.3 0
9.75 0.3 0
9.8 0.3 0
9.85 0.3 0
9.9 0.3 0
9.95 0.3 0
10 0.3 0
0 0.35 0
0.05 0.35 0
0.1 0.35 0
0.15 0.35 0
0.2 0.35 0
0.25 0.35 0
0.3 0.35 0
0.35 0.35 0
0.4 0.35 0
0.45 0.35 0
0.5 0.35 0
0.55 0.35 0
0.6 0.35 0
0.65 0.35 0
0.7 0.35 0
0.75 0.35 0
0.8 0.35 0
0.85 0.35 0
0.9 0.35 0
0.95 0.35 0
1 0.35 0
1.05 0.35 0
1.1 0.35 0
1.15 0.35 0
1.2 0.35 0
1.25 0.35 0
1.3 0.35 0
1.35 0.35 0
1.4 0.35 0
1.45 0.35 0
1.5 0.35 0
1.55 0.35 0
1.6 0.35 0
1.65 0.35 0
1.7 0.35 0
1.75 0.35 0
1.8 0.35 0
1.85 0.35 0
1.9 0.35 0
1.95 0.35 0
2 0.35 0
2.05 0.35 0
2.1 0.35 0
2.15 0.35 0
2.2 0.35 0
2.25 0.35 0
2.3 0.35 0
2.35 0.35 0
2.4 0.35 0
2.45 0.35 0
2.5 0.35 0
2.55 0.35 0
2.6 0.35 0
2.65 0.35 0
2.7 0.35 0
2.75 0.35 0
2.8 0.35 0
2.85 0.35 0
2.9 0.35 0
2.95 0.35 0
3 0.35 0
3.05 0.35 0
3.1 0.35 0
3.15 0.35 0
3.2 0.35 0
3.25 0.35 0
3.3 0.35 0
3.35 0.35 0
3.4 0.35 0
3.45 0.35 0
3.5 0.35 0
3.55 0.35 0
3.6 0.35 0
3.65 0.35 0
3.7 0.35 0
3.75 0.35 0
3.8 0.35 0
3.85 0.35 0
3.9 0.35 0
3.95 0.35 0
4 0.35 0
4.05 0.35 0
4.1 0.35 0
4.15 0.35 0
4.2 0.35 0
4.25 0.35 0
4.3 0.35 0
4.35 0.35 0
4.4 0.35 0
4.45 0.35 0
4.5 0.35 0
4.55 0.35 0
4.6 0.35 0
4.65 0.35 0
4.7 0.35 0
4.75 0.35 0
4.8 0.35 0
4.85 0.35 0
4.9 0.35 0
4.95 0.35 0
5 0.35 0
5.05 0.35 0
5.1 0.35 0
5.15 0.35 0
5.2 0.35 0
5.25 0.35 0
5.3 0.35 0
5.35 0.35 0
5.4 0.35 0
5.45 0.35 0
5.5 0.35 0
5.55 0.35 0
5.6 0.35 0
5.65 0.35 0
5.7 0.35 0
5.75 0.35 0
5.8 0.35 0
5.85 0.35 0
5.9 0.35 0
5.95 0.35 0
6 0.35 0
6.05 0.35 0
6.1 0.35 0
6.15 0.35 0
6.2 0.35 0
6.25 0.35 0
6.3 0.35 0
6.35 0.35 0
6.4 0.35 0
6.45 0.35 0
6.5 0.35 0
6.55 0.35 0
6.6 0.35 0
6.65 0.35 0
6.7 0.35 0
6.75 0.35 0
6.8 0.35 0
6.85 0.35 0
6.9 0.35 0
6.95 0.35 0
7 0.35 0
7.05 0.35 0
7.1 0.35 0
7.15 0.35 0
7.2 0.35 0
7.25 0.35 0
7.3 0.35 0
7.35 0.35 0
7.4 0.35 0
7.45 0.35 0
7.5 0.35 0
7.55 0.35 0
7.6 0.35 0
7.65 0.35 0
7.7 0.35 0
7.75 0.35 0
7.8 0.35 0
7.85 0.35 0
7.9 0.35 0
7.95 0.35 0
8 0.35 0
8.05 0.35 0
8.1 0.35 0
8.15 0.35 0
8.2 0.35 0
8.25 0.35 0
8.3 0.35 0
8.35 0.35 0
8.4 0.35 0
8.45 0.35 0
8.5 0.35 0
8.55 0.35 0
8.6 0.35 0
8.65 0.35 0
8.7 0.35 0
8.75 0.35 0
8.8 0.35 0
8.85 0.35 0
8.9 0.35 0
8.95 0.35 0
9 0.35 0
9.05 0.35 0
9.1 0.35 0
9.15 0.35 0
9.2 0.35 0
9.25 0.35 0
9.3 0.35 0
9.35 0.35 0
9.4 0.35 0
9.45 0.35 0
9.5 0.35 0
9.55 0.35 0
9.6 0.35 0
9.65 0.35 0
9.7 0.35 0
9.75 0.35 0
9.8 0.35 0
9.85 0.35 0
9.9 0.35 0
9.95 0.35 0
10 0.35 0
0 0.4 0
0.05 0.4 0
0.1 0.4 0
0.15 0.4 0
0.2 0.4 0
0.25 0.4 0
0.3 0.4 0
0.35 0.4 0
0.4 0.4 0
0.45 0.4 0
0.5 0.4 0
0.55 0.4 0
0.6 0.4 0
0.65 0.4 0
0.7 0.4 0
0.75 0.4 0
0.8 0.4 0
0.85 0.4 0
0.9 0.4 0
0.95 0.4 0
1 0.4 0
1.05 0.4 0
1.1 0.4 0
1.15 0.4 0
1.2 0.4 0
1.25 0.4 0
1.3 0.4 0
1.35 0.4 0
1.4 0.4 0
1.45 0.4 0
1.5 0.4 0
1.55 0.4 0
1.6 0.4 0
1.65 0.4 0
1.7 0.4 0
1.75 0.4 0
1.8 0.4 0
1.85 0.4 0
1.9 0.4 0
1.95 0.4 0
2 0.4 0
2.05 0.4 0
2.1 0.4 0
2.15 0.4 0
2.2 0.4 0
2.25 0.4 0
2.3 0.4 0
2.35 0.4 0
2.4 0.4 0
2.45 0.4 0
2.5 0.4 0
2.55 0.4 0
2.6 0.4 0
2.65 0.4 0
2.7 0.4 0
2.75 0.4 0
2.8 0.4 0
2.85 0.4 0
2.9 0.4 0
2.95 0.4 0
3 0.4 0
3.05 0.4 0
3.1 0.4 0
3.15 0.4 0
3.2 0.4 0
3.25 0.4 0
3.3 0.4 0
3.35 0.4 0
3.4 0.4 0
3.45 0.4 0
3.5 0.4 0
3.55 0.4 0
3.6 0.4 0
3.65 0.4 0
3.7 0.4 0
3.75 0.4 0
3.8 0.4 0
3.85 0.4 0
3.9 0.4 0
3.95 0.4 0
4 0.4 0
4.05 0.4 0
4.1 0.4 0
4.15 0.4 0
4.2 0.4 0
4.25 0.4 0
4.3 0.4 0
4.35 0.4 0
4.4 0.4 0
4.45 0.4 0
4.5 0.4 0
4.55 0.4 0
4.6 0.4 0
4.65 0.4 0
4.7 0.4 0
4.75 0.4 0
4.8 0.4 0
4.85 0.4 0
4.9 0.4 0
4.95 0.4 0
5 0.4 0
5.05 0.4 0
5.1 0.4 0
5.15 0.4 0
5.2 0.4 0
5.25 0.4 0
5.3 0.4 0
5.35 0.4 0
5.4 0.4 0
5.45 0.4 0
5.5 0.4 0
5.55 0.4 0
5.6 0.4 0
5.65 0.4 0
5.7 0.4 0
5.75 0.4 0
5.8 0.4 0
5.85 0.4 0
5.9 0.4 0
5.95 0.4 0
6 0.4 0
6.05 0.4 0
6.1 0.4 0
6.15 0.4 0
6.2 0.4 0
6.25 0.4 0
6.3 0.4 0
6.35 0.4 0
6.4 0.4 0
6.45 0.4 0
6.5 0.4 0
6.55 0.4 0
6.6 0.4 0
6.65 0.4 0
6.7 0.4 0
6.75 0.4 0
6.8 0.4 0
6.85 0.4 0
6.9 0.4 0
6.95 0.4 0
7 0.4 0
7.05 0.4 0
7.1 0.4 0
7.15 0.4 0
7.2 0.4 0
7.25 0.4 0
7.3 0.4 0
7.35 0.4 0
7.4 0.4 0
7.45 0.4 0
7.5 0.4 0
7.55 0.4 0
7.6 0.4 0
7.65 0.4 0
7.7 0.4 0
7.75 0.4 0
7.8 0.4 0
7.85 0.4 0
7.9 0.4 0
7.95 0.4 0
8 0.4 0
8.05 0.4 0
8.1 0.4 0
8.15 0.4 0
8.2 0.4 0
8.25 0.4 0
8.3 0.4 0
8.35 0.4 0
8.4 0.4 0
8.45 0.4 0
8.5 0.4 0
8.55 0.4 0
8.6 0.4 0
8.65 0.4 0
8.7 0.4 0
8.75 0.4 0
8.8 0.4 0
8.85 0.4 0
8.9 0.4 0
8.95 0.4 0
9 0.4 0
9.05 0.4 0
9.1 0.4 0
9.15 0.4 0
9.2 0.4 0
9.25 0.4 0
9.3 0.4 0
9.35 0.4 0
9.4 0.4 0
9.45 0.4 0
9.5 0.4 0
9.55 0.4 0
9.6 0.4 0
9.65 0.4 0
9.7 0.4 0
9.75 0.4 0
9.8 0.4 0
9.85 0.4 0
9.9 0.4 0
9.95 0.4 0
10 0.4 0
0 0.45 0
0.05 0.45 0
0.1 0.45 0
0.15 0.45 0
0.2 0.45 0
0.25 0.45 0
0.3 0.45 0
0.35 0.45 0
0.4 0.45 0
0.45 0.45 0
0.5 0.45 0
0.55 0.45 0
0.6 0.45 0
0.65 0.45 0
0.7 0.45 0
0.75 0.45 0
0.8 0.45 0
0.85 0.45 0
0.9 0.45 0
0.95 0.45 0
1 0.45 0
1.05 0.45 0
1.1 0.45 0
1.15 0.45 0
1.2 0.45 0
1.25 0.45 0
1.3 0.45 0
1.35 0.45 0
1.4 0.45 0
1.45 0.45 0
1.5 0.45 0
1.55 0.45 0
1.6 0.45 0
1.65 0.45 0
1.7 0.45 0
1.75 0.45 0
1.8 0.45 0
1.85 0.45 0
1.9 0.45 0
1.95 0.45 0
2 0.45 0
2.05 0.45 0
2.1 0.45 0
2.15 0.45 0
2.2 0.45 0
2.25 0.45 0
2.3 0.45 0
2.35 0.45 0
2.4 0.45 0
2.45 0.45 0
2.5 0.45 0
2.55 0.45 0
2.6 0.45 0
2.65 0.45 0
2.7 0.45 0
2.75 0.45 0
2.8 0.45 0
2.85 0.45 0
2.9 0.45 0
2.95 0.45 0
3 0.45 0
3.05 0.45 0
3.1 0.45 0
3.15 0.45 0
3.2 0.45 0
3.25 0.45 0
3.3 0.45 0
3.35 0.45 0
3.4 0.45 0
3.45 0.45 0
3.5 0.45 0
3.55 0.45 0
3.6 0.45 0
3.65 0.45 0
3.7 0.45 0
3.75 0.45 0
3.8 0.45 0
3.85 0.45 0
3.9 0.45 0
3.95 0.45 0
4 0.45 0
4.05 0.45 0
4.1 0.45 0
4.15 0.45 0
4.2 0.45 0
4.25 0.45 0
4.3 0.45 0
4.35 0.45 0
4.4 0.45 0
4.45 0.45 0
4.5 0.45 0
4.55 0.45 0
4.6 0.45 0
4.65 0.45 0
4.7 0.45 0
4.75 0.45 0
4.8 0.45 0
4.85 0.45 0
4.9 0.45 0
4.95 0.45 0
5 0.45 0
5.05 0.45 0
5.1 0.45 0
5.15 0.45 0
5.2 0.45 0
5.25 0.45 0
5.3 0.45 0
5.35 0.45 0
5.4 0.45 0
5.45 0.45 0
5.5 0.45 0
5.55 0.45 0
5.6 0.45 0
5.65 0.45 0
5.7 0.45 0
5.75 0.45 0
5.8 0.45 0
5.85 0.45 0
5.9 0.45 0
5.95 0.45 0
6 0.45 0
6.05 0.45 0
6.1 0.45 0
6.15 0.45 0
6.2 0.45 0
6.25 0.45 0
6.3 0.45 0
6.35 0.45 0
6.4 0.45 0
6.45 0.45 0
6.5 0.45 0
6.55 0.45 0
6.6 0.45 0
6.65 0.45 0
6.7 0.45 0
6.75 0.45 0
6.8 0.45 0
6.85 0.45 0
6.9 0.45 0
6.95 0.45 0
7 0.45 0
7.05 0.45 0
7.1 0.45 0
7.15 0.45 0
7.2 0.45 0
7.25 0.45 0
7.3 0.45 0
7.35 0.45 0
7.4 0.45 0
7.45 0.45 0
7.5 0.45 0
7.55 0.45 0
7.6 0.45 0
7.65 0.45 0
7.7 0.45 0
7.75 0.45 0
7.8 0.45 0
7.85 0.45 0
7.9 0.45 0
7.95 0.45 0
8 0.45 0
8.05 0.45 0
8.1 0.45 0
8.15 0.45 0
8.2 0.45 0
8.25 0.45 0
8.3 0.45 0
8.35 0.45 0
8.4 0.45 0
8.45 0.45 0
8.5 0.45 0
8.55 0.45 0
8.6 0.45 0
8.65 0.45 0
8.7 0.45 0
8.75 0.45 0
8.8 0.45 0
8.85 0.45 0
8.9 0.45 0
8.95 0.45 0
9 0.45 0
9.05 0.45 0
9.1 0.45 0
9.15 0.45 0
9.2 0.45 0
9.25 0.45 0
9.3 0.45 0
9.35 0.45 0
9.4 0.45 0
9.45 0.45 0
9.5 0.45 0
9.55 0.45 0
9.6 0.45 0
9.65 0.45 0
9.7 0.45 0
9.75 0.45 0
9.8 0.45 0
9.85 0.45 0
9.9 0.45 0
9.95 0.45 0
10 0.45 0
0 0.5 0
0.05 0.5 0
0.1 0.5 0
0.15 0.5 0
0.2 0.5 0
0.25 0.5 0
0.3 0.5 0
0.35 0.5 0
0.4 0.5 0
0.45 0.5 0
0.5 0.5 0
0.55 0.5 0
0.6 0.5 0
0.65 0.5 0
0.7 0.5 0
0.75 0.5 0
0.8 0.5 0
0.85 0.5 0
0.9 0.5 0
0.95 0.5 0
1 0.5 0
1.05 0.5 0
1.1 0.5 0
1.15 0.5 0
1.2 0.5 0
1.25 0.5 0
1.3 0.5 0
1.35 0.5 0
1.4 0.5 0
1.45 0.5 0
1.5 0.5 0
1.55 0.5 0
1.6 0.5 0
1.65 0.5 0
1.7 0.5 0
1.75 0.5 0
1.8 0.5 0
1.85 0.5 0
1.9 0.5 0
1.95 0.5 0
2 0.5 0
2.05 0.5 0
2.1 0.5 0
2.15 0.5 0
2.2 0.5 0
2.25 0.5 0
2.3 0.5 0
2.35 0.5 0
2.4 0.5 0
2.45 0.5 0
2.5 0.5 0
2.55 0.5 0
2.6 0.5 0
2.65 0.5 0
2.7 0.5 0
2.75 0.5 0
2.8 0.5 0
2.85 0.5 0
2.9 0.5 0
2.95 0.5 0
3 0.5 0
3.05 0.5 0
3.1 0.5 0
3.15 0.5 0
3.2 0.5 0
3.25 0.5 0
3.3 0.5 0
3.35 0.5 0
3.4 0.5 0
3.45 0.5 0
3.5 0.5 0
3.55 0.5 0
3.6 0.5 0
3.65 0.5 0
3.7 0.5 0
3.75 0.5 0
3.8 0.5 0
3.85 0.5 0
3.9 0.5 0
3.95 0.5 0
4 0.5 0
4.05 0.5 0
4.1 0.5 0
4.15 0.5 0
4.2 0.5 0
4.25 0.5 0
4.3 0.5 0
4.35 0.5 0
4.4 0.5 0
4.45 0.5 0
4.5 0.5 0
4.55 0.5 0
4.6 0.5 0
4.65 0.5 0
4.7 0.5 0
4.75 0.5 0
4.8 0.5 0
4.85 0.5 0
4.9 0.5 0
4.95 0.5 0
5 0.5 0
5.05 0.5 0
5.1 0.5 0
5.15 0.5 0
5.2 0.5 0
5.25 0.5 0
5.3 0.5 0
5.35 0.5 0
5.4 0.5 0
5.45 0.5 0
5.5 0.5 0
5.55 0.5 0
5.6 0.5 0
5.65 0.5 0
5.7 0.5 0
5.75 0.5 0
5.8 0.5 0
5.85 0.5 0
5.9 0.5 0
5.95 0.5 0
6 0.5 0
6.05 0.5 0
6.1 0.5 0
6.15 0.5 0
6.2 0.5 0
6.25 0.5 0
6.3 0.5 0
6.35 0.5 0
6.4 0.5 0
6.45 0.5 0
6.5 0.5 0
6.55 0.5 0
6.6 0.5 0
6.65 0.5 0
6.7 0.5 0
6.75 0.5 0
6.8 0.5 0
6.85 0.5 0
6.9 0.5 0
6.95 0.5 0
7 0.5 0
7.05 0.5 0
7.1 0.5 0
7.15 0.5 0
7.2 0.5 0
7.25 0.5 0
7.3 0.5 0
7.35 0.5 0
7.4 0.5 0
7.45 0.5 0
7.5 0.5 0
7.55 0.5 0
7.6 0.5 0
7.65 0.5 0
7.7 0.5 0
7.75 0.5 0
7.8 0.5 0
7.85 0.5 0
7.9 0.5 0
7.95 0.5 0
8 0.5 0
8.05 0.5 0
8.1 0.5 0
8.15 0.5 0
8.2 0.5 0
8.25 0.5 0
8.3 0.5 0
8.35 0.5 0
8.4 0.5 0
8.45 0.5 0
8.5 0.5 0
8.55 0.5 0
8.6 0.5 0
8.65 0.5 0
8.7 0.5 0
8.75 0.5 0
8.8 0.5 0
8.85 0.5 0
8.9 0.5 0
8.95 0.5 0
9 0.5 0
9.05 0.5 0
9.1 0.5 0
9.15 0.5 0
9.2 0.5 0
9.25 0.5 0
9.3 0.5 0
9.35 0.5 0
9.4 0.5 0
9.45 0.5 0
9.5 0.5 0
9.55 0.5 0
9.6 0.5 0
9.65 0.5 0
9.7 0.5 0
9.75 0.5 0
9.8 0.5 0
9.85 0.5 0
9.9 0.5 0
9.95 0.5 0
10 0.5 0

[2D_TRIANGLES]
;;V1 V2 V3 MANNINGS_N INIT_DEPTH
0 1 202 1e-08 0.005
0 202 201 1e-08 0.005
1 2 202 1e-08 0.005
2 203 202 1e-08 0.005
2 3 204 1e-08 0.005
2 204 203 1e-08 0.005
3 4 204 1e-08 0.005
4 205 204 1e-08 0.005
4 5 206 1e-08 0.005
4 206 205 1e-08 0.005
5 6 206 1e-08 0.005
6 207 206 1e-08 0.005
6 7 208 1e-08 0.005
6 208 207 1e-08 0.005
7 8 208 1e-08 0.005
8 209 208 1e-08 0.005
8 9 210 1e-08 0.005
8 210 209 1e-08 0.005
9 10 210 1e-08 0.005
10 211 210 1e-08 0.005
10 11 212 1e-08 0.005
10 212 211 1e-08 0.005
11 12 212 1e-08 0.005
12 213 212 1e-08 0.005
12 13 214 1e-08 0.005
12 214 213 1e-08 0.005
13 14 214 1e-08 0.005
14 215 214 1e-08 0.005
14 15 216 1e-08 0.005
14 216 215 1e-08 0.005
15 16 216 1e-08 0.005
16 217 216 1e-08 0.005
16 17 218 1e-08 0.005
16 218 217 1e-08 0.005
17 18 218 1e-08 0.005
18 219 218 1e-08 0.005
18 19 220 1e-08 0.005
18 220 219 1e-08 0.005
19 20 220 1e-08 0.005
20 221 220 1e-08 0.005
20 21 222 1e-08 0.005
20 222 221 1e-08 0.005
21 22 222 1e-08 0.005
22 223 222 1e-08 0.005
22 23 224 1e-08 0.005
22 224 223 1e-08 0.005
23 24 224 1e-08 0.005
24 225 224 1e-08 0.005
24 25 226 1e-08 0.005
24 226 225 1e-08 0.005
25 26 226 1e-08 0.005
26 227 226 1e-08 0.005
26 27 228 1e-08 0.005
26 228 227 1e-08 0.005
27 28 228 1e-08 0.005
28 229 228 1e-08 0.005
28 29 230 1e-08 0.005
28 230 229 1e-08 0.005
29 30 230 1e-08 0.005
30 231 230 1e-08 0.005
30 31 232 1e-08 0.005
30 232 231 1e-08 0.005
31 32 232 1e-08 0.005
32 233 232 1e-08 0.005
32 33 234 1e-08 0.005
32 234 233 1e-08 0.005
33 34 234 1e-08 0.005
34 235 234 1e-08 0.005
34 35 236 1e-08 0.005
34 236 235 1e-08 0.005
35 36 236 1e-08 0.005
36 237 236 1e-08 0.005
36 37 238 1e-08 0.005
36 238 237 1e-08 0.005
37 38 238 1e-08 0.005
38 239 238 1e-08 0.005
38 39 240 1e-08 0.005
38 240 239 1e-08 0.005
39 40 240 1e-08 0.005
40 241 240 1e-08 0.005
40 41 242 1e-08 0.005
40 242 241 1e-08 0.005
41 42 242 1e-08 0.005
42 243 242 1e-08 0.005
42 43 244 1e-08 0.005
42 244 243 1e-08 0.005
43 44 244 1e-08 0.005
44 245 244 1e-08 0.005
44 45 246 1e-08 0.005
44 246 245 1e-08 0.005
45 46 246 1e-08 0.005
46 247 246 1e-08 0.005
46 47 248 1e-08 0.005
46 248 247 1e-08 0.005
47 48 248 1e-08 0.005
48 249 248 1e-08 0.005
48 49 250 1e-08 0.005
48 250 249 1e-08 0.005
49 50 250 1e-08 0.005
50 251 250 1e-08 0.005
50 51 252 1e-08 0.005
50 252 251 1e-08 0.005
51 52 252 1e-08 0.005
52 253 252 1e-08 0.005
52 53 254 1e-08 0.005
52 254 253 1e-08 0.005
53 54 254 1e-08 0.005
54 255 254 1e-08 0.005
54 55 256 1e-08 0.005
54 256 255 1e-08 0.005
55 56 256 1e-08 0.005
56 257 256 1e-08 0.005
56 57 258 1e-08 0.005
56 258 257 1e-08 0.005
57 58 258 1e-08 0.005
58 259 258 1e-08 0.005
58 59 260 1e-08 0.005
58 260 259 1e-08 0.005
59 60 260 1e-08 0.005
60 261 260 1e-08 0.005
60 61 262 1e-08 0.005
60 262 261 1e-08 0.005
61 62 262 1e-08 0.005
62 263 262 1e-08 0.005
62 63 264 1e-08 0.005
62 264 263 1e-08 0.005
63 64 264 1e-08 0.005
64 265 264 1e-08 0.005
64 65 266 1e-08 0.005
64 266 265 1e-08 0.005
65 66 266 1e-08 0.005
66 267 266 1e-08 0.005
66 67 268 1e-08 0.005
66 268 267 1e-08 0.005
67 68 268 1e-08 0.005
68 269 268 1e-08 0.005
68 69 270 1e-08 0.005
68 270 269 1e-08 0.005
69 70 270 1e-08 0.005
70 271 270 1e-08 0.005
70 71 272 1e-08 0.005
70 272 271 1e-08 0.005
71 72 272 1e-08 0.005
72 273 272 1e-08 0.005
72 73 274 1e-08 0.005
72 274 273 1e-08 0.005
73 74 274 1e-08 0.005
74 275 274 1e-08 0.005
74 75 276 1e-08 0.005
74 276 275 1e-08 0.005
75 76 276 1e-08 0.005
76 277 276 1e-08 0.005
76 77 278 1e-08 0.005
76 278 277 1e-08 0.005
77 78 278 1e-08 0.005
78 279 278 1e-08 0.005
78 79 280 1e-08 0.005
78 280 279 1e-08 0.005
79 80 280 1e-08 0.005
80 281 280 1e-08 0.005
80 81 282 1e-08 0.005
80 282 281 1e-08 0.005
81 82 282 1e-08 0.005
82 283 282 1e-08 0.005
82 83 284 1e-08 0.005
82 284 283 1e-08 0.005
83 84 284 1e-08 0.005
84 285 284 1e-08 0.005
84 85 286 1e-08 0.005
84 286 285 1e-08 0.005
85 86 286 1e-08 0.005
86 287 286 1e-08 0.005
86 87 288 1e-08 0.005
86 288 287 1e-08 0.005
87 88 288 1e-08 0.005
88 289 288 1e-08 0.005
88 89 290 1e-08 0.005
88 290 289 1e-08 0.005
89 90 290 1e-08 0.005
90 291 290 1e-08 0.005
90 91 292 1e-08 0.005
90 292 291 1e-08 0.005
91 92 292 1e-08 0.005
92 293 292 1e-08 0.005
92 93 294 1e-08 0.005
92 294 293 1e-08 0.005
93 94 294 1e-08 0.005
94 295 294 1e-08 0.005
94 95 296 1e-08 0.005
94 296 295 1e-08 0.005
95 96 296 1e-08 0.005
96 297 296 1e-08 0.005
96 97 298 1e-08 0.005
96 298 297 1e-08 0.005
97 98 298 1e-08 0.005
98 299 298 1e-08 0.005
98 99 300 1e-08 0.005
98 300 299 1e-08 0.005
99 100 300 1e-08 0.005
100 301 300 1e-08 0.005
100 101 302 1e-08 0.001
100 302 301 1e-08 0.001
101 102 302 1e-08 0.001
102 303 302 1e-08 0.001
102 103 304 1e-08 0.001
102 304 303 1e-08 0.001
103 104 304 1e-08 0.001
104 305 304 1e-08 0.001
104 105 306 1e-08 0.001
104 306 305 1e-08 0.001
105 106 306 1e-08 0.001
106 307 306 1e-08 0.001
106 107 308 1e-08 0.001
106 308 307 1e-08 0.001
107 108 308 1e-08 0.001
108 309 308 1e-08 0.001
108 109 310 1e-08 0.001
108 310 309 1e-08 0.001
109 110 310 1e-08 0.001
110 311 310 1e-08 0.001
110 111 312 1e-08 0.001
110 312 311 1e-08 0.001
111 112 312 1e-08 0.001
112 313 312 1e-08 0.001
112 113 314 1e-08 0.001
112 314 313 1e-08 0.001
113 114 314 1e-08 0.001
114 315 314 1e-08 0.001
114 115 316 1e-08 0.001
114 316 315 1e-08 0.001
115 116 316 1e-08 0.001
116 317 316 1e-08 0.001
116 117 318 1e-08 0.001
116 318 317 1e-08 0.001
117 118 318 1e-08 0.001
118 319 318 1e-08 0.001
118 119 320 1e-08 0.001
118 320 319 1e-08 0.001
119 120 320 1e-08 0.001
120 321 320 1e-08 0.001
120 121 322 1e-08 0.001
120 322 321 1e-08 0.001
121 122 322 1e-08 0.001
122 323 322 1e-08 0.001
122 123 324 1e-08 0.001
122 324 323 1e-08 0.001
123 124 324 1e-08 0.001
124 325 324 1e-08 0.001
124 125 326 1e-08 0.001
124 326 325 1e-08 0.001
125 126 326 1e-08 0.001
126 327 326 1e-08 0.001
126 127 328 1e-08 0.001
126 328 327 1e-08 0.001
127 128 328 1e-08 0.001
128 329 328 1e-08 0.001
128 129 330 1e-08 0.001
128 330 329 1e-08 0.001
129 130 330 1e-08 0.001
130 331 330 1e-08 0.001
130 131 332 1e-08 0.001
130 332 331 1e-08 0.001
131 132 332 1e-08 0.001
132 333 332 1e-08 0.001
132 133 334 1e-08 0.001
132 334 333 1e-08 0.001
133 134 334 1e-08 0.001
134 335 334 1e-08 0.001
134 135 336 1e-08 0.001
134 336 335 1e-08 0.001
135 136 336 1e-08 0.001
136 337 336 1e-08 0.001
136 137 338 1e-08 0.001
136 338 337 1e-08 0.001
137 138 338 1e-08 0.001
138 339 338 1e-08 0.001
138 139 340 1e-08 0.001
138 340 339 1e-08 0.001
139 140 340 1e-08 0.001
140 341 340 1e-08 0.001
140 141 342 1e-08 0.001
140 342 341 1e-08 0.001
141 142 342 1e-08 0.001
142 343 342 1e-08 0.001
142 143 344 1e-08 0.001
142 344 343 1e-08 0.001
143 144 344 1e-08 0.001
144 345 344 1e-08 0.001
144 145 346 1e-08 0.001
144 346 345 1e-08 0.001
145 146 346 1e-08 0.001
146 347 346 1e-08 0.001
146 147 348 1e-08 0.001
146 348 347 1e-08 0.001
147 148 348 1e-08 0.001
148 349 348 1e-08 0.001
148 149 350 1e-08 0.001
148 350 349 1e-08 0.001
149 150 350 1e-08 0.001
150 351 350 1e-08 0.001
150 151 352 1e-08 0.001
150 352 351 1e-08 0.001
151 152 352 1e-08 0.001
152 353 352 1e-08 0.001
152 153 354 1e-08 0.001
152 354 353 1e-08 0.001
153 154 354 1e-08 0.001
154 355 354 1e-08 0.001
154 155 356 1e-08 0.001
154 356 355 1e-08 0.001
155 156 356 1e-08 0.001
156 357 356 1e-08 0.001
156 157 358 1e-08 0.001
156 358 357 1e-08 0.001
157 158 358 1e-08 0.001
158 359 358 1e-08 0.001
158 159 360 1e-08 0.001
158 360 359 1e-08 0.001
159 160 360 1e-08 0.001
160 361 360 1e-08 0.001
160 161 362 1e-08 0.001
160 362 361 1e-08 0.001
161 162 362 1e-08 0.001
162 363 362 1e-08 0.001
162 163 364 1e-08 0.001
162 364 363 1e-08 0.001
163 164 364 1e-08 0.001
164 365 364 1e-08 0.001
164 165 366 1e-08 0.001
164 366 365 1e-08 0.001
165 166 366 1e-08 0.001
166 367 366 1e-08 0.001
166 167 368 1e-08 0.001
166 368 367 1e-08 0.001
167 168 368 1e-08 0.001
168 369 368 1e-08 0.001
168 169 370 1e-08 0.001
168 370 369 1e-08 0.001
169 170 370 1e-08 0.001
170 371 370 1e-08 0.001
170 171 372 1e-08 0.001
170 372 371 1e-08 0.001
171 172 372 1e-08 0.001
172 373 372 1e-08 0.001
172 173 374 1e-08 0.001
172 374 373 1e-08 0.001
173 174 374 1e-08 0.001
174 375 374 1e-08 0.001
174 175 376 1e-08 0.001
174 376 375 1e-08 0.001
175 176 376 1e-08 0.001
176 377 376 1e-08 0.001
176 177 378 1e-08 0.001
176 378 377 1e-08 0.001
177 178 378 1e-08 0.001
178 379 378 1e-08 0.001
178 179 380 1e-08 0.001
178 380 379 1e-08 0.001
179 180 380 1e-08 0.001
180 381 380 1e-08 0.001
180 181 382 1e-08 0.001
180 382 381 1e-08 0.001
181 182 382 1e-08 0.001
182 383 382 1e-08 0.001
182 183 384 1e-08 0.001
182 384 383 1e-08 0.001
183 184 384 1e-08 0.001
184 385 384 1e-08 0.001
184 185 386 1e-08 0.001
184 386 385 1e-08 0.001
185 186 386 1e-08 0.001
186 387 386 1e-08 0.001
186 187 388 1e-08 0.001
186 388 387 1e-08 0.001
187 188 388 1e-08 0.001
188 389 388 1e-08 0.001
188 189 390 1e-08 0.001
188 390 389 1e-08 0.001
189 190 390 1e-08 0.001
190 391 390 1e-08 0.001
190 191 392 1e-08 0.001
190 392 391 1e-08 0.001
191 192 392 1e-08 0.001
192 393 392 1e-08 0.001
192 193 394 1e-08 0.001
192 394 393 1e-08 0.001
193 194 394 1e-08 0.001
194 395 394 1e-08 0.001
194 195 396 1e-08 0.001
194 396 395 1e-08 0.001
195 196 396 1e-08 0.001
196 397 396 1e-08 0.001
196 197 398 1e-08 0.001
196 398 397 1e-08 0.001
197 198 398 1e-08 0.001
198 399 398 1e-08 0.001
198 199 400 1e-08 0.001
198 400 399 1e-08 0.001
199 200 400 1e-08 0.001
200 401 400 1e-08 0.001
201 202 402 1e-08 0.005
202 403 402 1e-08 0.005
202 203 404 1e-08 0.005
202 404 403 1e-08 0.005
203 204 404 1e-08 0.005
204 405 404 1e-08 0.005
204 205 406 1e-08 0.005
204 406 405 1e-08 0.005
205 206 406 1e-08 0.005
206 407 406 1e-08 0.005
206 207 408 1e-08 0.005
206 408 407 1e-08 0.005
207 208 408 1e-08 0.005
208 409 408 1e-08 0.005
208 209 410 1e-08 0.005
208 410 409 1e-08 0.005
209 210 410 1e-08 0.005
210 411 410 1e-08 0.005
210 211 412 1e-08 0.005
210 412 411 1e-08 0.005
211 212 412 1e-08 0.005
212 413 412 1e-08 0.005
212 213 414 1e-08 0.005
212 414 413 1e-08 0.005
213 214 414 1e-08 0.005
214 415 414 1e-08 0.005
214 215 416 1e-08 0.005
214 416 415 1e-08 0.005
215 216 416 1e-08 0.005
216 417 416 1e-08 0.005
216 217 418 1e-08 0.005
216 418 417 1e-08 0.005
217 218 418 1e-08 0.005
218 419 418 1e-08 0.005
218 219 420 1e-08 0.005
218 420 419 1e-08 0.005
219 220 420 1e-08 0.005
220 421 420 1e-08 0.005
220 221 422 1e-08 0.005
220 422 421 1e-08 0.005
221 222 422 1e-08 0.005
222 423 422 1e-08 0.005
222 223 424 1e-08 0.005
222 424 423 1e-08 0.005
223 224 424 1e-08 0.005
224 425 424 1e-08 0.005
224 225 426 1e-08 0.005
224 426 425 1e-08 0.005
225 226 426 1e-08 0.005
226 427 426 1e-08 0.005
226 227 428 1e-08 0.005
226 428 427 1e-08 0.005
227 228 428 1e-08 0.005
228 429 428 1e-08 0.005
228 229 430 1e-08 0.005
228 430 429 1e-08 0.005
229 230 430 1e-08 0.005
230 431 430 1e-08 0.005
230 231 432 1e-08 0.005
230 432 431 1e-08 0.005
231 232 432 1e-08 0.005
232 433 432 1e-08 0.005
232 233 434 1e-08 0.005
232 434 433 1e-08 0.005
233 234 434 1e-08 0.005
234 435 434 1e-08 0.005
234 235 436 1e-08 0.005
234 436 435 1e-08 0.005
235 236 436 1e-08 0.005
236 437 436 1e-08 0.005
236 237 438 1e-08 0.005
236 438 437 1e-08 0.005
237 238 438 1e-08 0.005
238 439 438 1e-08 0.005
238 239 440 1e-08 0.005
238 440 439 1e-08 0.005
239 240 440 1e-08 0.005
240 441 440 1e-08 0.005
240 241 442 1e-08 0.005
240 442 441 1e-08 0.005
241 242 442 1e-08 0.005
242 443 442 1e-08 0.005
242 243 444 1e-08 0.005
242 444 443 1e-08 0.005
243 244 444 1e-08 0.005
244 445 444 1e-08 0.005
244 245 446 1e-08 0.005
244 446 445 1e-08 0.005
245 246 446 1e-08 0.005
246 447 446 1e-08 0.005
246 247 448 1e-08 0.005
246 448 447 1e-08 0.005
247 248 448 1e-08 0.005
248 449 448 1e-08 0.005
248 249 450 1e-08 0.005
248 450 449 1e-08 0.005
249 250 450 1e-08 0.005
250 451 450 1e-08 0.005
250 251 452 1e-08 0.005
250 452 451 1e-08 0.005
251 252 452 1e-08 0.005
252 453 452 1e-08 0.005
252 253 454 1e-08 0.005
252 454 453 1e-08 0.005
253 254 454 1e-08 0.005
254 455 454 1e-08 0.005
254 255 456 1e-08 0.005
254 456 455 1e-08 0.005
255 256 456 1e-08 0.005
256 457 456 1e-08 0.005
256 257 458 1e-08 0.005
256 458 457 1e-08 0.005
257 258 458 1e-08 0.005
258 459 458 1e-08 0.005
258 259 460 1e-08 0.005
258 460 459 1e-08 0.005
259 260 460 1e-08 0.005
260 461 460 1e-08 0.005
260 261 462 1e-08 0.005
260 462 461 1e-08 0.005
261 262 462 1e-08 0.005
262 463 462 1e-08 0.005
262 263 464 1e-08 0.005
262 464 463 1e-08 0.005
263 264 464 1e-08 0.005
264 465 464 1e-08 0.005
264 265 466 1e-08 0.005
264 466 465 1e-08 0.005
265 266 466 1e-08 0.005
266 467 466 1e-08 0.005
266 267 468 1e-08 0.005
266 468 467 1e-08 0.005
267 268 468 1e-08 0.005
268 469 468 1e-08 0.005
268 269 470 1e-08 0.005
268 470 469 1e-08 0.005
269 270 470 1e-08 0.005
270 471 470 1e-08 0.005
270 271 472 1e-08 0.005
270 472 471 1e-08 0.005
271 272 472 1e-08 0.005
272 473 472 1e-08 0.005
272 273 474 1e-08 0.005
272 474 473 1e-08 0.005
273 274 474 1e-08 0.005
274 475 474 1e-08 0.005
274 275 476 1e-08 0.005
274 476 475 1e-08 0.005
275 276 476 1e-08 0.005
276 477 476 1e-08 0.005
276 277 478 1e-08 0.005
276 478 477 1e-08 0.005
277 278 478 1e-08 0.005
278 479 478 1e-08 0.005
278 279 480 1e-08 0.005
278 480 479 1e-08 0.005
279 280 480 1e-08 0.005
280 481 480 1e-08 0.005
280 281 482 1e-08 0.005
280 482 481 1e-08 0.005
281 282 482 1e-08 0.005
282 483 482 1e-08 0.005
282 283 484 1e-08 0.005
282 484 483 1e-08 0.005
283 284 484 1e-08 0.005
284 485 484 1e-08 0.005
284 285 486 1e-08 0.005
284 486 485 1e-08 0.005
285 286 486 1e-08 0.005
286 487 486 1e-08 0.005
286 287 488 1e-08 0.005
286 488 487 1e-08 0.005
287 288 488 1e-08 0.005
288 489 488 1e-08 0.005
288 289 490 1e-08 0.005
288 490 489 1e-08 0.005
289 290 490 1e-08 0.005
290 491 490 1e-08 0.005
290 291 492 1e-08 0.005
290 492 491 1e-08 0.005
291 292 492 1e-08 0.005
292 493 492 1e-08 0.005
292 293 494 1e-08 0.005
292 494 493 1e-08 0.005
293 294 494 1e-08 0.005
294 495 494 1e-08 0.005
294 295 496 1e-08 0.005
294 496 495 1e-08 0.005
295 296 496 1e-08 0.005
296 497 496 1e-08 0.005
296 297 498 1e-08 0.005
296 498 497 1e-08 0.005
297 298 498 1e-08 0.005
298 499 498 1e-08 0.005
298 299 500 1e-08 0.005
298 500 499 1e-08 0.005
299 300 500 1e-08 0.005
300 501 500 1e-08 0.005
300 301 502 1e-08 0.005
300 502 501 1e-08 0.005
301 302 502 1e-08 0.001
302 503 502 1e-08 0.001
302 303 504 1e-08 0.001
302 504 503 1e-08 0.001
303 304 504 1e-08 0.001
304 505 504 1e-08 0.001
304 305 506 1e-08 0.001
304 506 505 1e-08 0.001
305 306 506 1e-08 0.001
306 507 506 1e-08 0.001
306 307 508 1e-08 0.001
306 508 507 1e-08 0.001
307 308 508 1e-08 0.001
308 509 508 1e-08 0.001
308 309 510 1e-08 0.001
308 510 509 1e-08 0.001
309 310 510 1e-08 0.001
310 511 510 1e-08 0.001
310 311 512 1e-08 0.001
310 512 511 1e-08 0.001
311 312 512 1e-08 0.001
312 513 512 1e-08 0.001
312 313 514 1e-08 0.001
312 514 513 1e-08 0.001
313 314 514 1e-08 0.001
314 515 514 1e-08 0.001
314 315 516 1e-08 0.001
314 516 515 1e-08 0.001
315 316 516 1e-08 0.001
316 517 516 1e-08 0.001
316 317 518 1e-08 0.001
316 518 517 1e-08 0.001
317 318 518 1e-08 0.001
318 519 518 1e-08 0.001
318 319 520 1e-08 0.001
318 520 519 1e-08 0.001
319 320 520 1e-08 0.001
320 521 520 1e-08 0.001
320 321 522 1e-08 0.001
320 522 521 1e-08 0.001
321 322 522 1e-08 0.001
322 523 522 1e-08 0.001
322 323 524 1e-08 0.001
322 524 523 1e-08 0.001
323 324 524 1e-08 0.001
324 525 524 1e-08 0.001
324 325 526 1e-08 0.001
324 526 525 1e-08 0.001
325 326 526 1e-08 0.001
326 527 526 1e-08 0.001
326 327 528 1e-08 0.001
326 528 527 1e-08 0.001
327 328 528 1e-08 0.001
328 529 528 1e-08 0.001
328 329 530 1e-08 0.001
328 530 529 1e-08 0.001
329 330 530 1e-08 0.001
330 531 530 1e-08 0.001
330 331 532 1e-08 0.001
330 532 531 1e-08 0.001
331 332 532 1e-08 0.001
332 533 532 1e-08 0.001
332 333 534 1e-08 0.001
332 534 533 1e-08 0.001
333 334 534 1e-08 0.001
334 535 534 1e-08 0.001
334 335 536 1e-08 0.001
334 536 535 1e-08 0.001
335 336 536 1e-08 0.001
336 537 536 1e-08 0.001
336 337 538 1e-08 0.001
336 538 537 1e-08 0.001
337 338 538 1e-08 0.001
338 539 538 1e-08 0.001
338 339 540 1e-08 0.001
338 540 539 1e-08 0.001
339 340 540 1e-08 0.001
340 541 540 1e-08 0.001
340 341 542 1e-08 0.001
340 542 541 1e-08 0.001
341 342 542 1e-08 0.001
342 543 542 1e-08 0.001
342 343 544 1e-08 0.001
342 544 543 1e-08 0.001
343 344 544 1e-08 0.001
344 545 544 1e-08 0.001
344 345 546 1e-08 0.001
344 546 545 1e-08 0.001
345 346 546 1e-08 0.001
346 547 546 1e-08 0.001
346 347 548 1e-08 0.001
346 548 547 1e-08 0.001
347 348 548 1e-08 0.001
348 549 548 1e-08 0.001
348 349 550 1e-08 0.001
348 550 549 1e-08 0.001
349 350 550 1e-08 0.001
350 551 550 1e-08 0.001
350 351 552 1e-08 0.001
350 552 551 1e-08 0.001
351 352 552 1e-08 0.001
352 553 552 1e-08 0.001
352 353 554 1e-08 0.001
352 554 553 1e-08 0.001
353 354 554 1e-08 0.001
354 555 554 1e-08 0.001
354 355 556 1e-08 0.001
354 556 555 1e-08 0.001
355 356 556 1e-08 0.001
356 557 556 1e-08 0.001
356 357 558 1e-08 0.001
356 558 557 1e-08 0.001
357 358 558 1e-08 0.001
358 559 558 1e-08 0.001
358 359 560 1e-08 0.001
358 560 559 1e-08 0.001
359 360 560 1e-08 0.001
360 561 560 1e-08 0.001
360 361 562 1e-08 0.001
360 562 561 1e-08 0.001
361 362 562 1e-08 0.001
362 563 562 1e-08 0.001
362 363 564 1e-08 0.001
362 564 563 1e-08 0.001
363 364 564 1e-08 0.001
364 565 564 1e-08 0.001
364 365 566 1e-08 0.001
364 566 565 1e-08 0.001
365 366 566 1e-08 0.001
366 567 566 1e-08 0.001
366 367 568 1e-08 0.001
366 568 567 1e-08 0.001
367 368 568 1e-08 0.001
368 569 568 1e-08 0.001
368 369 570 1e-08 0.001
368 570 569 1e-08 0.001
369 370 570 1e-08 0.001
370 571 570 1e-08 0.001
370 371 572 1e-08 0.001
370 572 571 1e-08 0.001
371 372 572 1e-08 0.001
372 573 572 1e-08 0.001
372 373 574 1e-08 0.001
372 574 573 1e-08 0.001
373 374 574 1e-08 0.001
374 575 574 1e-08 0.001
374 375 576 1e-08 0.001
374 576 575 1e-08 0.001
375 376 576 1e-08 0.001
376 577 576 1e-08 0.001
376 377 578 1e-08 0.001
376 578 577 1e-08 0.001
377 378 578 1e-08 0.001
378 579 578 1e-08 0.001
378 379 580 1e-08 0.001
378 580 579 1e-08 0.001
379 380 580 1e-08 0.001
380 581 580 1e-08 0.001
380 381 582 1e-08 0.001
380 582 581 1e-08 0.001
381 382 582 1e-08 0.001
382 583 582 1e-08 0.001
382 383 584 1e-08 0.001
382 584 583 1e-08 0.001
383 384 584 1e-08 0.001
384 585 584 1e-08 0.001
384 385 586 1e-08 0.001
384 586 585 1e-08 0.001
385 386 586 1e-08 0.001
386 587 586 1e-08 0.001
386 387 588 1e-08 0.001
386 588 587 1e-08 0.001
387 388 588 1e-08 0.001
388 589 588 1e-08 0.001
388 389 590 1e-08 0.001
388 590 589 1e-08 0.001
389 390 590 1e-08 0.001
390 591 590 1e-08 0.001
390 391 592 1e-08 0.001
390 592 591 1e-08 0.001
391 392 592 1e-08 0.001
392 593 592 1e-08 0.001
392 393 594 1e-08 0.001
392 594 593 1e-08 0.001
393 394 594 1e-08 0.001
394 595 594 1e-08 0.001
394 395 596 1e-08 0.001
394 596 595 1e-08 0.001
395 396 596 1e-08 0.001
396 597 596 1e-08 0.001
396 397 598 1e-08 0.001
396 598 597 1e-08 0.001
397 398 598 1e-08 0.001
398 599 598 1e-08 0.001
398 399 600 1e-08 0.001
398 600 599 1e-08 0.001
399 400 600 1e-08 0.001
400 601 600 1e-08 0.001
400 401 602 1e-08 0.001
400 602 601 1e-08 0.001
402 403 604 1e-08 0.005
402 604 603 1e-08 0.005
403 404 604 1e-08 0.005
404 605 604 1e-08 0.005
404 405 606 1e-08 0.005
404 606 605 1e-08 0.005
405 406 606 1e-08 0.005
406 607 606 1e-08 0.005
406 407 608 1e-08 0.005
406 608 607 1e-08 0.005
407 408 608 1e-08 0.005
408 609 608 1e-08 0.005
408 409 610 1e-08 0.005
408 610 609 1e-08 0.005
409 410 610 1e-08 0.005
410 611 610 1e-08 0.005
410 411 612 1e-08 0.005
410 612 611 1e-08 0.005
411 412 612 1e-08 0.005
412 613 612 1e-08 0.005
412 413 614 1e-08 0.005
412 614 613 1e-08 0.005
413 414 614 1e-08 0.005
414 615 614 1e-08 0.005
414 415 616 1e-08 0.005
414 616 615 1e-08 0.005
415 416 616 1e-08 0.005
416 617 616 1e-08 0.005
416 417 618 1e-08 0.005
416 618 617 1e-08 0.005
417 418 618 1e-08 0.005
418 619 618 1e-08 0.005
418 419 620 1e-08 0.005
418 620 619 1e-08 0.005
419 420 620 1e-08 0.005
420 621 620 1e-08 0.005
420 421 622 1e-08 0.005
420 622 621 1e-08 0.005
421 422 622 1e-08 0.005
422 623 622 1e-08 0.005
422 423 624 1e-08 0.005
422 624 623 1e-08 0.005
423 424 624 1e-08 0.005
424 625 624 1e-08 0.005
424 425 626 1e-08 0.005
424 626 625 1e-08 0.005
425 426 626 1e-08 0.005
426 627 626 1e-08 0.005
426 427 628 1e-08 0.005
426 628 627 1e-08 0.005
427 428 628 1e-08 0.005
428 629 628 1e-08 0.005
428 429 630 1e-08 0.005
428 630 629 1e-08 0.005
429 430 630 1e-08 0.005
430 631 630 1e-08 0.005
430 431 632 1e-08 0.005
430 632 631 1e-08 0.005
431 432 632 1e-08 0.005
432 633 632 1e-08 0.005
432 433 634 1e-08 0.005
432 634 633 1e-08 0.005
433 434 634 1e-08 0.005
434 635 634 1e-08 0.005
434 435 636 1e-08 0.005
434 636 635 1e-08 0.005
435 436 636 1e-08 0.005
436 637 636 1e-08 0.005
436 437 638 1e-08 0.005
436 638 637 1e-08 0.005
437 438 638 1e-08 0.005
438 639 638 1e-08 0.005
438 439 640 1e-08 0.005
438 640 639 1e-08 0.005
439 440 640 1e-08 0.005
440 641 640 1e-08 0.005
440 441 642 1e-08 0.005
440 642 641 1e-08 0.005
441 442 642 1e-08 0.005
442 643 642 1e-08 0.005
442 443 644 1e-08 0.005
442 644 643 1e-08 0.005
443 444 644 1e-08 0.005
444 645 644 1e-08 0.005
444 445 646 1e-08 0.005
444 646 645 1e-08 0.005
445 446 646 1e-08 0.005
446 647 646 1e-08 0.005
446 447 648 1e-08 0.005
446 648 647 1e-08 0.005
447 448 648 1e-08 0.005
448 649 648 1e-08 0.005
448 449 650 1e-08 0.005
448 650 649 1e-08 0.005
449 450 650 1e-08 0.005
450 651 650 1e-08 0.005
450 451 652 1e-08 0.005
450 652 651 1e-08 0.005
451 452 652 1e-08 0.005
452 653 652 1e-08 0.005
452 453 654 1e-08 0.005
452 654 653 1e-08 0.005
453 454 654 1e-08 0.005
454 655 654 1e-08 0.005
454 455 656 1e-08 0.005
454 656 655 1e-08 0.005
455 456 656 1e-08 0.005
456 657 656 1e-08 0.005
456 457 658 1e-08 0.005
456 658 657 1e-08 0.005
457 458 658 1e-08 0.005
458 659 658 1e-08 0.005
458 459 660 1e-08 0.005
458 660 659 1e-08 0.005
459 460 660 1e-08 0.005
460 661 660 1e-08 0.005
460 461 662 1e-08 0.005
460 662 661 1e-08 0.005
461 462 662 1e-08 0.005
462 663 662 1e-08 0.005
462 463 664 1e-08 0.005
462 664 663 1e-08 0.005
463 464 664 1e-08 0.005
464 665 664 1e-08 0.005
464 465 666 1e-08 0.005
464 666 665 1e-08 0.005
465 466 666 1e-08 0.005
466 667 666 1e-08 0.005
466 467 668 1e-08 0.005
466 668 667 1e-08 0.005
467 468 668 1e-08 0.005
468 669 668 1e-08 0.005
468 469 670 1e-08 0.005
468 670 669 1e-08 0.005
469 470 670 1e-08 0.005
470 671 670 1e-08 0.005
470 471 672 1e-08 0.005
470 672 671 1e-08 0.005
471 472 672 1e-08 0.005
472 673 672 1e-08 0.005
472 473 674 1e-08 0.005
472 674 673 1e-08 0.005
473 474 674 1e-08 0.005
474 675 674 1e-08 0.005
474 475 676 1e-08 0.005
474 676 675 1e-08 0.005
475 476 676 1e-08 0.005
476 677 676 1e-08 0.005
476 477 678 1e-08 0.005
476 678 677 1e-08 0.005
477 478 678 1e-08 0.005
478 679 678 1e-08 0.005
478 479 680 1e-08 0.005
478 680 679 1e-08 0.005
479 480 680 1e-08 0.005
480 681 680 1e-08 0.005
480 481 682 1e-08 0.005
480 682 681 1e-08 0.005
481 482 682 1e-08 0.005
482 683 682 1e-08 0.005
482 483 684 1e-08 0.005
482 684 683 1e-08 0.005
483 484 684 1e-08 0.005
484 685 684 1e-08 0.005
484 485 686 1e-08 0.005
484 686 685 1e-08 0.005
485 486 686 1e-08 0.005
486 687 686 1e-08 0.005
486 487 688 1e-08 0.005
486 688 687 1e-08 0.005
487 488 688 1e-08 0.005
488 689 688 1e-08 0.005
488 489 690 1e-08 0.005
488 690 689 1e-08 0.005
489 490 690 1e-08 0.005
490 691 690 1e-08 0.005
490 491 692 1e-08 0.005
490 692 691 1e-08 0.005
491 492 692 1e-08 0.005
492 693 692 1e-08 0.005
492 493 694 1e-08 0.005
492 694 693 1e-08 0.005
493 494 694 1e-08 0.005
494 695 694 1e-08 0.005
494 495 696 1e-08 0.005
494 696 695 1e-08 0.005
495 496 696 1e-08 0.005
496 697 696 1e-08 0.005
496 497 698 1e-08 0.005
496 698 697 1e-08 0.005
497 498 698 1e-08 0.005
498 699 698 1e-08 0.005
498 499 700 1e-08 0.005
498 700 699 1e-08 0.005
499 500 700 1e-08 0.005
500 701 700 1e-08 0.005
500 501 702 1e-08 0.005
500 702 701 1e-08 0.005
501 502 702 1e-08 0.005
502 703 702 1e-08 0.005
502 503 704 1e-08 0.001
502 704 703 1e-08 0.001
503 504 704 1e-08 0.001
504 705 704 1e-08 0.001
504 505 706 1e-08 0.001
504 706 705 1e-08 0.001
505 506 706 1e-08 0.001
506 707 706 1e-08 0.001
506 507 708 1e-08 0.001
506 708 707 1e-08 0.001
507 508 708 1e-08 0.001
508 709 708 1e-08 0.001
508 509 710 1e-08 0.001
508 710 709 1e-08 0.001
509 510 710 1e-08 0.001
510 711 710 1e-08 0.001
510 511 712 1e-08 0.001
510 712 711 1e-08 0.001
511 512 712 1e-08 0.001
512 713 712 1e-08 0.001
512 513 714 1e-08 0.001
512 714 713 1e-08 0.001
513 514 714 1e-08 0.001
514 715 714 1e-08 0.001
514 515 716 1e-08 0.001
514 716 715 1e-08 0.001
515 516 716 1e-08 0.001
516 717 716 1e-08 0.001
516 517 718 1e-08 0.001
516 718 717 1e-08 0.001
517 518 718 1e-08 0.001
518 719 718 1e-08 0.001
518 519 720 1e-08 0.001
518 720 719 1e-08 0.001
519 520 720 1e-08 0.001
520 721 720 1e-08 0.001
520 521 722 1e-08 0.001
520 722 721 1e-08 0.001
521 522 722 1e-08 0.001
522 723 722 1e-08 0.001
522 523 724 1e-08 0.001
522 724 723 1e-08 0.001
523 524 724 1e-08 0.001
524 725 724 1e-08 0.001
524 525 726 1e-08 0.001
524 726 725 1e-08 0.001
525 526 726 1e-08 0.001
526 727 726 1e-08 0.001
526 527 728 1e-08 0.001
526 728 727 1e-08 0.001
527 528 728 1e-08 0.001
528 729 728 1e-08 0.001
528 529 730 1e-08 0.001
528 730 729 1e-08 0.001
529 530 730 1e-08 0.001
530 731 730 1e-08 0.001
530 531 732 1e-08 0.001
530 732 731 1e-08 0.001
531 532 732 1e-08 0.001
532 733 732 1e-08 0.001
532 533 734 1e-08 0.001
532 734 733 1e-08 0.001
533 534 734 1e-08 0.001
534 735 734 1e-08 0.001
534 535 736 1e-08 0.001
534 736 735 1e-08 0.001
535 536 736 1e-08 0.001
536 737 736 1e-08 0.001
536 537 738 1e-08 0.001
536 738 737 1e-08 0.001
537 538 738 1e-08 0.001
538 739 738 1e-08 0.001
538 539 740 1e-08 0.001
538 740 739 1e-08 0.001
539 540 740 1e-08 0.001
540 741 740 1e-08 0.001
540 541 742 1e-08 0.001
540 742 741 1e-08 0.001
541 542 742 1e-08 0.001
542 743 742 1e-08 0.001
542 543 744 1e-08 0.001
542 744 743 1e-08 0.001
543 544 744 1e-08 0.001
544 745 744 1e-08 0.001
544 545 746 1e-08 0.001
544 746 745 1e-08 0.001
545 546 746 1e-08 0.001
546 747 746 1e-08 0.001
546 547 748 1e-08 0.001
546 748 747 1e-08 0.001
547 548 748 1e-08 0.001
548 749 748 1e-08 0.001
548 549 750 1e-08 0.001
548 750 749 1e-08 0.001
549 550 750 1e-08 0.001
550 751 750 1e-08 0.001
550 551 752 1e-08 0.001
550 752 751 1e-08 0.001
551 552 752 1e-08 0.001
552 753 752 1e-08 0.001
552 553 754 1e-08 0.001
552 754 753 1e-08 0.001
553 554 754 1e-08 0.001
554 755 754 1e-08 0.001
554 555 756 1e-08 0.001
554 756 755 1e-08 0.001
555 556 756 1e-08 0.001
556 757 756 1e-08 0.001
556 557 758 1e-08 0.001
556 758 757 1e-08 0.001
557 558 758 1e-08 0.001
558 759 758 1e-08 0.001
558 559 760 1e-08 0.001
558 760 759 1e-08 0.001
559 560 760 1e-08 0.001
560 761 760 1e-08 0.001
560 561 762 1e-08 0.001
560 762 761 1e-08 0.001
561 562 762 1e-08 0.001
562 763 762 1e-08 0.001
562 563 764 1e-08 0.001
562 764 763 1e-08 0.001
563 564 764 1e-08 0.001
564 765 764 1e-08 0.001
564 565 766 1e-08 0.001
564 766 765 1e-08 0.001
565 566 766 1e-08 0.001
566 767 766 1e-08 0.001
566 567 768 1e-08 0.001
566 768 767 1e-08 0.001
567 568 768 1e-08 0.001
568 769 768 1e-08 0.001
568 569 770 1e-08 0.001
568 770 769 1e-08 0.001
569 570 770 1e-08 0.001
570 771 770 1e-08 0.001
570 571 772 1e-08 0.001
570 772 771 1e-08 0.001
571 572 772 1e-08 0.001
572 773 772 1e-08 0.001
572 573 774 1e-08 0.001
572 774 773 1e-08 0.001
573 574 774 1e-08 0.001
574 775 774 1e-08 0.001
574 575 776 1e-08 0.001
574 776 775 1e-08 0.001
575 576 776 1e-08 0.001
576 777 776 1e-08 0.001
576 577 778 1e-08 0.001
576 778 777 1e-08 0.001
577 578 778 1e-08 0.001
578 779 778 1e-08 0.001
578 579 780 1e-08 0.001
578 780 779 1e-08 0.001
579 580 780 1e-08 0.001
580 781 780 1e-08 0.001
580 581 782 1e-08 0.001
580 782 781 1e-08 0.001
581 582 782 1e-08 0.001
582 783 782 1e-08 0.001
582 583 784 1e-08 0.001
582 784 783 1e-08 0.001
583 584 784 1e-08 0.001
584 785 784 1e-08 0.001
584 585 786 1e-08 0.001
584 786 785 1e-08 0.001
585 586 786 1e-08 0.001
586 787 786 1e-08 0.001
586 587 788 1e-08 0.001
586 788 787 1e-08 0.001
587 588 788 1e-08 0.001
588 789 788 1e-08 0.001
588 589 790 1e-08 0.001
588 790 789 1e-08 0.001
589 590 790 1e-08 0.001
590 791 790 1e-08 0.001
590 591 792 1e-08 0.001
590 792 791 1e-08 0.001
591 592 792 1e-08 0.001
592 793 792 1e-08 0.001
592 593 794 1e-08 0.001
592 794 793 1e-08 0.001
593 594 794 1e-08 0.001
594 795 794 1e-08 0.001
594 595 796 1e-08 0.001
594 796 795 1e-08 0.001
595 596 796 1e-08 0.001
596 797 796 1e-08 0.001
596 597 798 1e-08 0.001
596 798 797 1e-08 0.001
597 598 798 1e-08 0.001
598 799 798 1e-08 0.001
598 599 800 1e-08 0.001
598 800 799 1e-08 0.001
599 600 800 1e-08 0.001
600 801 800 1e-08 0.001
600 601 802 1e-08 0.001
600 802 801 1e-08 0.001
601 602 802 1e-08 0.001
602 803 802 1e-08 0.001
603 604 804 1e-08 0.005
604 805 804 1e-08 0.005
604 605 806 1e-08 0.005
604 806 805 1e-08 0.005
605 606 806 1e-08 0.005
606 807 806 1e-08 0.005
606 607 808 1e-08 0.005
606 808 807 1e-08 0.005
607 608 808 1e-08 0.005
608 809 808 1e-08 0.005
608 609 810 1e-08 0.005
608 810 809 1e-08 0.005
609 610 810 1e-08 0.005
610 811 810 1e-08 0.005
610 611 812 1e-08 0.005
610 812 811 1e-08 0.005
611 612 812 1e-08 0.005
612 813 812 1e-08 0.005
612 613 814 1e-08 0.005
612 814 813 1e-08 0.005
613 614 814 1e-08 0.005
614 815 814 1e-08 0.005
614 615 816 1e-08 0.005
614 816 815 1e-08 0.005
615 616 816 1e-08 0.005
616 817 816 1e-08 0.005
616 617 818 1e-08 0.005
616 818 817 1e-08 0.005
617 618 818 1e-08 0.005
618 819 818 1e-08 0.005
618 619 820 1e-08 0.005
618 820 819 1e-08 0.005
619 620 820 1e-08 0.005
620 821 820 1e-08 0.005
620 621 822 1e-08 0.005
620 822 821 1e-08 0.005
621 622 822 1e-08 0.005
622 823 822 1e-08 0.005
622 623 824 1e-08 0.005
622 824 823 1e-08 0.005
623 624 824 1e-08 0.005
624 825 824 1e-08 0.005
624 625 826 1e-08 0.005
624 826 825 1e-08 0.005
625 626 826 1e-08 0.005
626 827 826 1e-08 0.005
626 627 828 1e-08 0.005
626 828 827 1e-08 0.005
627 628 828 1e-08 0.005
628 829 828 1e-08 0.005
628 629 830 1e-08 0.005
628 830 829 1e-08 0.005
629 630 830 1e-08 0.005
630 831 830 1e-08 0.005
630 631 832 1e-08 0.005
630 832 831 1e-08 0.005
631 632 832 1e-08 0.005
632 833 832 1e-08 0.005
632 633 834 1e-08 0.005
632 834 833 1e-08 0.005
633 634 834 1e-08 0.005
634 835 834 1e-08 0.005
634 635 836 1e-08 0.005
634 836 835 1e-08 0.005
635 636 836 1e-08 0.005
636 837 836 1e-08 0.005
636 637 838 1e-08 0.005
636 838 837 1e-08 0.005
637 638 838 1e-08 0.005
638 839 838 1e-08 0.005
638 639 840 1e-08 0.005
638 840 839 1e-08 0.005
639 640 840 1e-08 0.005
640 841 840 1e-08 0.005
640 641 842 1e-08 0.005
640 842 841 1e-08 0.005
641 642 842 1e-08 0.005
642 843 842 1e-08 0.005
642 643 844 1e-08 0.005
642 844 843 1e-08 0.005
643 644 844 1e-08 0.005
644 845 844 1e-08 0.005
644 645 846 1e-08 0.005
644 846 845 1e-08 0.005
645 646 846 1e-08 0.005
646 847 846 1e-08 0.005
646 647 848 1e-08 0.005
646 848 847 1e-08 0.005
647 648 848 1e-08 0.005
648 849 848 1e-08 0.005
648 649 850 1e-08 0.005
648 850 849 1e-08 0.005
649 650 850 1e-08 0.005
650 851 850 1e-08 0.005
650 651 852 1e-08 0.005
650 852 851 1e-08 0.005
651 652 852 1e-08 0.005
652 853 852 1e-08 0.005
652 653 854 1e-08 0.005
652 854 853 1e-08 0.005
653 654 854 1e-08 0.005
654 855 854 1e-08 0.005
654 655 856 1e-08 0.005
654 856 855 1e-08 0.005
655 656 856 1e-08 0.005
656 857 856 1e-08 0.005
656 657 858 1e-08 0.005
656 858 857 1e-08 0.005
657 658 858 1e-08 0.005
658 859 858 1e-08 0.005
658 659 860 1e-08 0.005
658 860 859 1e-08 0.005
659 660 860 1e-08 0.005
660 861 860 1e-08 0.005
660 661 862 1e-08 0.005
660 862 861 1e-08 0.005
661 662 862 1e-08 0.005
662 863 862 1e-08 0.005
662 663 864 1e-08 0.005
662 864 863 1e-08 0.005
663 664 864 1e-08 0.005
664 865 864 1e-08 0.005
664 665 866 1e-08 0.005
664 866 865 1e-08 0.005
665 666 866 1e-08 0.005
666 867 866 1e-08 0.005
666 667 868 1e-08 0.005
666 868 867 1e-08 0.005
667 668 868 1e-08 0.005
668 869 868 1e-08 0.005
668 669 870 1e-08 0.005
668 870 869 1e-08 0.005
669 670 870 1e-08 0.005
670 871 870 1e-08 0.005
670 671 872 1e-08 0.005
670 872 871 1e-08 0.005
671 672 872 1e-08 0.005
672 873 872 1e-08 0.005
672 673 874 1e-08 0.005
672 874 873 1e-08 0.005
673 674 874 1e-08 0.005
674 875 874 1e-08 0.005
674 675 876 1e-08 0.005
674 876 875 1e-08 0.005
675 676 876 1e-08 0.005
676 877 876 1e-08 0.005
676 677 878 1e-08 0.005
676 878 877 1e-08 0.005
677 678 878 1e-08 0.005
678 879 878 1e-08 0.005
678 679 880 1e-08 0.005
678 880 879 1e-08 0.005
679 680 880 1e-08 0.005
680 881 880 1e-08 0.005
680 681 882 1e-08 0.005
680 882 881 1e-08 0.005
681 682 882 1e-08 0.005
682 883 882 1e-08 0.005
682 683 884 1e-08 0.005
682 884 883 1e-08 0.005
683 684 884 1e-08 0.005
684 885 884 1e-08 0.005
684 685 886 1e-08 0.005
684 886 885 1e-08 0.005
685 686 886 1e-08 0.005
686 887 886 1e-08 0.005
686 687 888 1e-08 0.005
686 888 887 1e-08 0.005
687 688 888 1e-08 0.005
688 889 888 1e-08 0.005
688 689 890 1e-08 0.005
688 890 889 1e-08 0.005
689 690 890 1e-08 0.005
690 891 890 1e-08 0.005
690 691 892 1e-08 0.005
690 892 891 1e-08 0.005
691 692 892 1e-08 0.005
692 893 892 1e-08 0.005
692 693 894 1e-08 0.005
692 894 893 1e-08 0.005
693 694 894 1e-08 0.005
694 895 894 1e-08 0.005
694 695 896 1e-08 0.005
694 896 895 1e-08 0.005
695 696 896 1e-08 0.005
696 897 896 1e-08 0.005
696 697 898 1e-08 0.005
696 898 897 1e-08 0.005
697 698 898 1e-08 0.005
698 899 898 1e-08 0.005
698 699 900 1e-08 0.005
698 900 899 1e-08 0.005
699 700 900 1e-08 0.005
700 901 900 1e-08 0.005
700 701 902 1e-08 0.005
700 902 901 1e-08 0.005
701 702 902 1e-08 0.005
702 903 902 1e-08 0.005
702 703 904 1e-08 0.005
702 904 903 1e-08 0.005
703 704 904 1e-08 0.001
704 905 904 1e-08 0.001
704 705 906 1e-08 0.001
704 906 905 1e-08 0.001
705 706 906 1e-08 0.001
706 907 906 1e-08 0.001
706 707 908 1e-08 0.001
706 908 907 1e-08 0.001
707 708 908 1e-08 0.001
708 909 908 1e-08 0.001
708 709 910 1e-08 0.001
708 910 909 1e-08 0.001
709 710 910 1e-08 0.001
710 911 910 1e-08 0.001
710 711 912 1e-08 0.001
710 912 911 1e-08 0.001
711 712 912 1e-08 0.001
712 913 912 1e-08 0.001
712 713 914 1e-08 0.001
712 914 913 1e-08 0.001
713 714 914 1e-08 0.001
714 915 914 1e-08 0.001
714 715 916 1e-08 0.001
714 916 915 1e-08 0.001
715 716 916 1e-08 0.001
716 917 916 1e-08 0.001
716 717 918 1e-08 0.001
716 918 917 1e-08 0.001
717 718 918 1e-08 0.001
718 919 918 1e-08 0.001
718 719 920 1e-08 0.001
718 920 919 1e-08 0.001
719 720 920 1e-08 0.001
720 921 920 1e-08 0.001
720 721 922 1e-08 0.001
720 922 921 1e-08 0.001
721 722 922 1e-08 0.001
722 923 922 1e-08 0.001
722 723 924 1e-08 0.001
722 924 923 1e-08 0.001
723 724 924 1e-08 0.001
724 925 924 1e-08 0.001
724 725 926 1e-08 0.001
724 926 925 1e-08 0.001
725 726 926 1e-08 0.001
726 927 926 1e-08 0.001
726 727 928 1e-08 0.001
726 928 927 1e-08 0.001
727 728 928 1e-08 0.001
728 929 928 1e-08 0.001
728 729 930 1e-08 0.001
728 930 929 1e-08 0.001
729 730 930 1e-08 0.001
730 931 930 1e-08 0.001
730 731 932 1e-08 0.001
730 932 931 1e-08 0.001
731 732 932 1e-08 0.001
732 933 932 1e-08 0.001
732 733 934 1e-08 0.001
732 934 933 1e-08 0.001
733 734 934 1e-08 0.001
734 935 934 1e-08 0.001
734 735 936 1e-08 0.001
734 936 935 1e-08 0.001
735 736 936 1e-08 0.001
736 937 936 1e-08 0.001
736 737 938 1e-08 0.001
736 938 937 1e-08 0.001
737 738 938 1e-08 0.001
738 939 938 1e-08 0.001
738 739 940 1e-08 0.001
738 940 939 1e-08 0.001
739 740 940 1e-08 0.001
740 941 940 1e-08 0.001
740 741 942 1e-08 0.001
740 942 941 1e-08 0.001
741 742 942 1e-08 0.001
742 943 942 1e-08 0.001
742 743 944 1e-08 0.001
742 944 943 1e-08 0.001
743 744 944 1e-08 0.001
744 945 944 1e-08 0.001
744 745 946 1e-08 0.001
744 946 945 1e-08 0.001
745 746 946 1e-08 0.001
746 947 946 1e-08 0.001
746 747 948 1e-08 0.001
746 948 947 1e-08 0.001
747 748 948 1e-08 0.001
748 949 948 1e-08 0.001
748 749 950 1e-08 0.001
748 950 949 1e-08 0.001
749 750 950 1e-08 0.001
750 951 950 1e-08 0.001
750 751 952 1e-08 0.001
750 952 951 1e-08 0.001
751 752 952 1e-08 0.001
752 953 952 1e-08 0.001
752 753 954 1e-08 0.001
752 954 953 1e-08 0.001
753 754 954 1e-08 0.001
754 955 954 1e-08 0.001
754 755 956 1e-08 0.001
754 956 955 1e-08 0.001
755 756 956 1e-08 0.001
756 957 956 1e-08 0.001
756 757 958 1e-08 0.001
756 958 957 1e-08 0.001
757 758 958 1e-08 0.001
758 959 958 1e-08 0.001
758 759 960 1e-08 0.001
758 960 959 1e-08 0.001
759 760 960 1e-08 0.001
760 961 960 1e-08 0.001
760 761 962 1e-08 0.001
760 962 961 1e-08 0.001
761 762 962 1e-08 0.001
762 963 962 1e-08 0.001
762 763 964 1e-08 0.001
762 964 963 1e-08 0.001
763 764 964 1e-08 0.001
764 965 964 1e-08 0.001
764 765 966 1e-08 0.001
764 966 965 1e-08 0.001
765 766 966 1e-08 0.001
766 967 966 1e-08 0.001
766 767 968 1e-08 0.001
766 968 967 1e-08 0.001
767 768 968 1e-08 0.001
768 969 968 1e-08 0.001
768 769 970 1e-08 0.001
768 970 969 1e-08 0.001
769 770 970 1e-08 0.001
770 971 970 1e-08 0.001
770 771 972 1e-08 0.001
770 972 971 1e-08 0.001
771 772 972 1e-08 0.001
772 973 972 1e-08 0.001
772 773 974 1e-08 0.001
772 974 973 1e-08 0.001
773 774 974 1e-08 0.001
774 975 974 1e-08 0.001
774 775 976 1e-08 0.001
774 976 975 1e-08 0.001
775 776 976 1e-08 0.001
776 977 976 1e-08 0.001
776 777 978 1e-08 0.001
776 978 977 1e-08 0.001
777 778 978 1e-08 0.001
778 979 978 1e-08 0.001
778 779 980 1e-08 0.001
778 980 979 1e-08 0.001
779 780 980 1e-08 0.001
780 981 980 1e-08 0.001
780 781 982 1e-08 0.001
780 982 981 1e-08 0.001
781 782 982 1e-08 0.001
782 983 982 1e-08 0.001
782 783 984 1e-08 0.001
782 984 983 1e-08 0.001
783 784 984 1e-08 0.001
784 985 984 1e-08 0.001
784 785 986 1e-08 0.001
784 986 985 1e-08 0.001
785 786 986 1e-08 0.001
786 987 986 1e-08 0.001
786 787 988 1e-08 0.001
786 988 987 1e-08 0.001
787 788 988 1e-08 0.001
788 989 988 1e-08 0.001
788 789 990 1e-08 0.001
788 990 989 1e-08 0.001
789 790 990 1e-08 0.001
790 991 990 1e-08 0.001
790 791 992 1e-08 0.001
790 992 991 1e-08 0.001
791 792 992 1e-08 0.001
792 993 992 1e-08 0.001
792 793 994 1e-08 0.001
792 994 993 1e-08 0.001
793 794 994 1e-08 0.001
794 995 994 1e-08 0.001
794 795 996 1e-08 0.001
794 996 995 1e-08 0.001
795 796 996 1e-08 0.001
796 997 996 1e-08 0.001
796 797 998 1e-08 0.001
796 998 997 1e-08 0.001
797 798 998 1e-08 0.001
798 999 998 1e-08 0.001
798 799 1000 1e-08 0.001
798 1000 999 1e-08 0.001
799 800 1000 1e-08 0.001
800 1001 1000 1e-08 0.001
800 801 1002 1e-08 0.001
800 1002 1001 1e-08 0.001
801 802 1002 1e-08 0.001
802 1003 1002 1e-08 0.001
802 803 1004 1e-08 0.001
802 1004 1003 1e-08 0.001
804 805 1006 1e-08 0.005
804 1006 1005 1e-08 0.005
805 806 1006 1e-08 0.005
806 1007 1006 1e-08 0.005
806 807 1008 1e-08 0.005
806 1008 1007 1e-08 0.005
807 808 1008 1e-08 0.005
808 1009 1008 1e-08 0.005
808 809 1010 1e-08 0.005
808 1010 1009 1e-08 0.005
809 810 1010 1e-08 0.005
810 1011 1010 1e-08 0.005
810 811 1012 1e-08 0.005
810 1012 1011 1e-08 0.005
811 812 1012 1e-08 0.005
812 1013 1012 1e-08 0.005
812 813 1014 1e-08 0.005
812 1014 1013 1e-08 0.005
813 814 1014 1e-08 0.005
814 1015 1014 1e-08 0.005
814 815 1016 1e-08 0.005
814 1016 1015 1e-08 0.005
815 816 1016 1e-08 0.005
816 1017 1016 1e-08 0.005
816 817 1018 1e-08 0.005
816 1018 1017 1e-08 0.005
817 818 1018 1e-08 0.005
818 1019 1018 1e-08 0.005
818 819 1020 1e-08 0.005
818 1020 1019 1e-08 0.005
819 820 1020 1e-08 0.005
820 1021 1020 1e-08 0.005
820 821 1022 1e-08 0.005
820 1022 1021 1e-08 0.005
821 822 1022 1e-08 0.005
822 1023 1022 1e-08 0.005
822 823 1024 1e-08 0.005
822 1024 1023 1e-08 0.005
823 824 1024 1e-08 0.005
824 1025 1024 1e-08 0.005
824 825 1026 1e-08 0.005
824 1026 1025 1e-08 0.005
825 826 1026 1e-08 0.005
826 1027 1026 1e-08 0.005
826 827 1028 1e-08 0.005
826 1028 1027 1e-08 0.005
827 828 1028 1e-08 0.005
828 1029 1028 1e-08 0.005
828 829 1030 1e-08 0.005
828 1030 1029 1e-08 0.005
829 830 1030 1e-08 0.005
830 1031 1030 1e-08 0.005
830 831 1032 1e-08 0.005
830 1032 1031 1e-08 0.005
831 832 1032 1e-08 0.005
832 1033 1032 1e-08 0.005
832 833 1034 1e-08 0.005
832 1034 1033 1e-08 0.005
833 834 1034 1e-08 0.005
834 1035 1034 1e-08 0.005
834 835 1036 1e-08 0.005
834 1036 1035 1e-08 0.005
835 836 1036 1e-08 0.005
836 1037 1036 1e-08 0.005
836 837 1038 1e-08 0.005
836 1038 1037 1e-08 0.005
837 838 1038 1e-08 0.005
838 1039 1038 1e-08 0.005
838 839 1040 1e-08 0.005
838 1040 1039 1e-08 0.005
839 840 1040 1e-08 0.005
840 1041 1040 1e-08 0.005
840 841 1042 1e-08 0.005
840 1042 1041 1e-08 0.005
841 842 1042 1e-08 0.005
842 1043 1042 1e-08 0.005
842 843 1044 1e-08 0.005
842 1044 1043 1e-08 0.005
843 844 1044 1e-08 0.005
844 1045 1044 1e-08 0.005
844 845 1046 1e-08 0.005
844 1046 1045 1e-08 0.005
845 846 1046 1e-08 0.005
846 1047 1046 1e-08 0.005
846 847 1048 1e-08 0.005
846 1048 1047 1e-08 0.005
847 848 1048 1e-08 0.005
848 1049 1048 1e-08 0.005
848 849 1050 1e-08 0.005
848 1050 1049 1e-08 0.005
849 850 1050 1e-08 0.005
850 1051 1050 1e-08 0.005
850 851 1052 1e-08 0.005
850 1052 1051 1e-08 0.005
851 852 1052 1e-08 0.005
852 1053 1052 1e-08 0.005
852 853 1054 1e-08 0.005
852 1054 1053 1e-08 0.005
853 854 1054 1e-08 0.005
854 1055 1054 1e-08 0.005
854 855 1056 1e-08 0.005
854 1056 1055 1e-08 0.005
855 856 1056 1e-08 0.005
856 1057 1056 1e-08 0.005
856 857 1058 1e-08 0.005
856 1058 1057 1e-08 0.005
857 858 1058 1e-08 0.005
858 1059 1058 1e-08 0.005
858 859 1060 1e-08 0.005
858 1060 1059 1e-08 0.005
859 860 1060 1e-08 0.005
860 1061 1060 1e-08 0.005
860 861 1062 1e-08 0.005
860 1062 1061 1e-08 0.005
861 862 1062 1e-08 0.005
862 1063 1062 1e-08 0.005
862 863 1064 1e-08 0.005
862 1064 1063 1e-08 0.005
863 864 1064 1e-08 0.005
864 1065 1064 1e-08 0.005
864 865 1066 1e-08 0.005
864 1066 1065 1e-08 0.005
865 866 1066 1e-08 0.005
866 1067 1066 1e-08 0.005
866 867 1068 1e-08 0.005
866 1068 1067 1e-08 0.005
867 868 1068 1e-08 0.005
868 1069 1068 1e-08 0.005
868 869 1070 1e-08 0.005
868 1070 1069 1e-08 0.005
869 870 1070 1e-08 0.005
870 1071 1070 1e-08 0.005
870 871 1072 1e-08 0.005
870 1072 1071 1e-08 0.005
871 872 1072 1e-08 0.005
872 1073 1072 1e-08 0.005
872 873 1074 1e-08 0.005
872 1074 1073 1e-08 0.005
873 874 1074 1e-08 0.005
874 1075 1074 1e-08 0.005
874 875 1076 1e-08 0.005
874 1076 1075 1e-08 0.005
875 876 1076 1e-08 0.005
876 1077 1076 1e-08 0.005
876 877 1078 1e-08 0.005
876 1078 1077 1e-08 0.005
877 878 1078 1e-08 0.005
878 1079 1078 1e-08 0.005
878 879 1080 1e-08 0.005
878 1080 1079 1e-08 0.005
879 880 1080 1e-08 0.005
880 1081 1080 1e-08 0.005
880 881 1082 1e-08 0.005
880 1082 1081 1e-08 0.005
881 882 1082 1e-08 0.005
882 1083 1082 1e-08 0.005
882 883 1084 1e-08 0.005
882 1084 1083 1e-08 0.005
883 884 1084 1e-08 0.005
884 1085 1084 1e-08 0.005
884 885 1086 1e-08 0.005
884 1086 1085 1e-08 0.005
885 886 1086 1e-08 0.005
886 1087 1086 1e-08 0.005
886 887 1088 1e-08 0.005
886 1088 1087 1e-08 0.005
887 888 1088 1e-08 0.005
888 1089 1088 1e-08 0.005
888 889 1090 1e-08 0.005
888 1090 1089 1e-08 0.005
889 890 1090 1e-08 0.005
890 1091 1090 1e-08 0.005
890 891 1092 1e-08 0.005
890 1092 1091 1e-08 0.005
891 892 1092 1e-08 0.005
892 1093 1092 1e-08 0.005
892 893 1094 1e-08 0.005
892 1094 1093 1e-08 0.005
893 894 1094 1e-08 0.005
894 1095 1094 1e-08 0.005
894 895 1096 1e-08 0.005
894 1096 1095 1e-08 0.005
895 896 1096 1e-08 0.005
896 1097 1096 1e-08 0.005
896 897 1098 1e-08 0.005
896 1098 1097 1e-08 0.005
897 898 1098 1e-08 0.005
898 1099 1098 1e-08 0.005
898 899 1100 1e-08 0.005
898 1100 1099 1e-08 0.005
899 900 1100 1e-08 0.005
900 1101 1100 1e-08 0.005
900 901 1102 1e-08 0.005
900 1102 1101 1e-08 0.005
901 902 1102 1e-08 0.005
902 1103 1102 1e-08 0.005
902 903 1104 1e-08 0.005
902 1104 1103 1e-08 0.005
903 904 1104 1e-08 0.005
904 1105 1104 1e-08 0.005
904 905 1106 1e-08 0.001
904 1106 1105 1e-08 0.001
905 906 1106 1e-08 0.001
906 1107 1106 1e-08 0.001
906 907 1108 1e-08 0.001
906 1108 1107 1e-08 0.001
907 908 1108 1e-08 0.001
908 1109 1108 1e-08 0.001
908 909 1110 1e-08 0.001
908 1110 1109 1e-08 0.001
909 910 1110 1e-08 0.001
910 1111 1110 1e-08 0.001
910 911 1112 1e-08 0.001
910 1112 1111 1e-08 0.001
911 912 1112 1e-08 0.001
912 1113 1112 1e-08 0.001
912 913 1114 1e-08 0.001
912 1114 1113 1e-08 0.001
913 914 1114 1e-08 0.001
914 1115 1114 1e-08 0.001
914 915 1116 1e-08 0.001
914 1116 1115 1e-08 0.001
915 916 1116 1e-08 0.001
916 1117 1116 1e-08 0.001
916 917 1118 1e-08 0.001
916 1118 1117 1e-08 0.001
917 918 1118 1e-08 0.001
918 1119 1118 1e-08 0.001
918 919 1120 1e-08 0.001
918 1120 1119 1e-08 0.001
919 920 1120 1e-08 0.001
920 1121 1120 1e-08 0.001
920 921 1122 1e-08 0.001
920 1122 1121 1e-08 0.001
921 922 1122 1e-08 0.001
922 1123 1122 1e-08 0.001
922 923 1124 1e-08 0.001
922 1124 1123 1e-08 0.001
923 924 1124 1e-08 0.001
924 1125 1124 1e-08 0.001
924 925 1126 1e-08 0.001
924 1126 1125 1e-08 0.001
925 926 1126 1e-08 0.001
926 1127 1126 1e-08 0.001
926 927 1128 1e-08 0.001
926 1128 1127 1e-08 0.001
927 928 1128 1e-08 0.001
928 1129 1128 1e-08 0.001
928 929 1130 1e-08 0.001
928 1130 1129 1e-08 0.001
929 930 1130 1e-08 0.001
930 1131 1130 1e-08 0.001
930 931 1132 1e-08 0.001
930 1132 1131 1e-08 0.001
931 932 1132 1e-08 0.001
932 1133 1132 1e-08 0.001
932 933 1134 1e-08 0.001
932 1134 1133 1e-08 0.001
933 934 1134 1e-08 0.001
934 1135 1134 1e-08 0.001
934 935 1136 1e-08 0.001
934 1136 1135 1e-08 0.001
935 936 1136 1e-08 0.001
936 1137 1136 1e-08 0.001
936 937 1138 1e-08 0.001
936 1138 1137 1e-08 0.001
937 938 1138 1e-08 0.001
938 1139 1138 1e-08 0.001
938 939 1140 1e-08 0.001
938 1140 1139 1e-08 0.001
939 940 1140 1e-08 0.001
940 1141 1140 1e-08 0.001
940 941 1142 1e-08 0.001
940 1142 1141 1e-08 0.001
941 942 1142 1e-08 0.001
942 1143 1142 1e-08 0.001
942 943 1144 1e-08 0.001
942 1144 1143 1e-08 0.001
943 944 1144 1e-08 0.001
944 1145 1144 1e-08 0.001
944 945 1146 1e-08 0.001
944 1146 1145 1e-08 0.001
945 946 1146 1e-08 0.001
946 1147 1146 1e-08 0.001
946 947 1148 1e-08 0.001
946 1148 1147 1e-08 0.001
947 948 1148 1e-08 0.001
948 1149 1148 1e-08 0.001
948 949 1150 1e-08 0.001
948 1150 1149 1e-08 0.001
949 950 1150 1e-08 0.001
950 1151 1150 1e-08 0.001
950 951 1152 1e-08 0.001
950 1152 1151 1e-08 0.001
951 952 1152 1e-08 0.001
952 1153 1152 1e-08 0.001
952 953 1154 1e-08 0.001
952 1154 1153 1e-08 0.001
953 954 1154 1e-08 0.001
954 1155 1154 1e-08 0.001
954 955 1156 1e-08 0.001
954 1156 1155 1e-08 0.001
955 956 1156 1e-08 0.001
956 1157 1156 1e-08 0.001
956 957 1158 1e-08 0.001
956 1158 1157 1e-08 0.001
957 958 1158 1e-08 0.001
958 1159 1158 1e-08 0.001
958 959 1160 1e-08 0.001
958 1160 1159 1e-08 0.001
959 960 1160 1e-08 0.001
960 1161 1160 1e-08 0.001
960 961 1162 1e-08 0.001
960 1162 1161 1e-08 0.001
961 962 1162 1e-08 0.001
962 1163 1162 1e-08 0.001
962 963 1164 1e-08 0.001
962 1164 1163 1e-08 0.001
963 964 1164 1e-08 0.001
964 1165 1164 1e-08 0.001
964 965 1166 1e-08 0.001
964 1166 1165 1e-08 0.001
965 966 1166 1e-08 0.001
966 1167 1166 1e-08 0.001
966 967 1168 1e-08 0.001
966 1168 1167 1e-08 0.001
967 968 1168 1e-08 0.001
968 1169 1168 1e-08 0.001
968 969 1170 1e-08 0.001
968 1170 1169 1e-08 0.001
969 970 1170 1e-08 0.001
970 1171 1170 1e-08 0.001
970 971 1172 1e-08 0.001
970 1172 1171 1e-08 0.001
971 972 1172 1e-08 0.001
972 1173 1172 1e-08 0.001
972 973 1174 1e-08 0.001
972 1174 1173 1e-08 0.001
973 974 1174 1e-08 0.001
974 1175 1174 1e-08 0.001
974 975 1176 1e-08 0.001
974 1176 1175 1e-08 0.001
975 976 1176 1e-08 0.001
976 1177 1176 1e-08 0.001
976 977 1178 1e-08 0.001
976 1178 1177 1e-08 0.001
977 978 1178 1e-08 0.001
978 1179 1178 1e-08 0.001
978 979 1180 1e-08 0.001
978 1180 1179 1e-08 0.001
979 980 1180 1e-08 0.001
980 1181 1180 1e-08 0.001
980 981 1182 1e-08 0.001
980 1182 1181 1e-08 0.001
981 982 1182 1e-08 0.001
982 1183 1182 1e-08 0.001
982 983 1184 1e-08 0.001
982 1184 1183 1e-08 0.001
983 984 1184 1e-08 0.001
984 1185 1184 1e-08 0.001
984 985 1186 1e-08 0.001
984 1186 1185 1e-08 0.001
985 986 1186 1e-08 0.001
986 1187 1186 1e-08 0.001
986 987 1188 1e-08 0.001
986 1188 1187 1e-08 0.001
987 988 1188 1e-08 0.001
988 1189 1188 1e-08 0.001
988 989 1190 1e-08 0.001
988 1190 1189 1e-08 0.001
989 990 1190 1e-08 0.001
990 1191 1190 1e-08 0.001
990 991 1192 1e-08 0.001
990 1192 1191 1e-08 0.001
991 992 1192 1e-08 0.001
992 1193 1192 1e-08 0.001
992 993 1194 1e-08 0.001
992 1194 1193 1e-08 0.001
993 994 1194 1e-08 0.001
994 1195 1194 1e-08 0.001
994 995 1196 1e-08 0.001
994 1196 1195 1e-08 0.001
995 996 1196 1e-08 0.001
996 1197 1196 1e-08 0.001
996 997 1198 1e-08 0.001
996 1198 1197 1e-08 0.001
997 998 1198 1e-08 0.001
998 1199 1198 1e-08 0.001
998 999 1200 1e-08 0.001
998 1200 1199 1e-08 0.001
999 1000 1200 1e-08 0.001
1000 1201 1200 1e-08 0.001
1000 1001 1202 1e-08 0.001
1000 1202 1201 1e-08 0.001
1001 1002 1202 1e-08 0.001
1002 1203 1202 1e-08 0.001
1002 1003 1204 1e-08 0.001
1002 1204 1203 1e-08 0.001
1003 1004 1204 1e-08 0.001
1004 1205 1204 1e-08 0.001
1005 1006 1206 1e-08 0.005
1006 1207 1206 1e-08 0.005
1006 1007 1208 1e-08 0.005
1006 1208 1207 1e-08 0.005
1007 1008 1208 1e-08 0.005
1008 1209 1208 1e-08 0.005
1008 1009 1210 1e-08 0.005
1008 1210 1209 1e-08 0.005
1009 1010 1210 1e-08 0.005
1010 1211 1210 1e-08 0.005
1010 1011 1212 1e-08 0.005
1010 1212 1211 1e-08 0.005
1011 1012 1212 1e-08 0.005
1012 1213 1212 1e-08 0.005
1012 1013 1214 1e-08 0.005
1012 1214 1213 1e-08 0.005
1013 1014 1214 1e-08 0.005
1014 1215 1214 1e-08 0.005
1014 1015 1216 1e-08 0.005
1014 1216 1215 1e-08 0.005
1015 1016 1216 1e-08 0.005
1016 1217 1216 1e-08 0.005
1016 1017 1218 1e-08 0.005
1016 1218 1217 1e-08 0.005
1017 1018 1218 1e-08 0.005
1018 1219 1218 1e-08 0.005
1018 1019 1220 1e-08 0.005
1018 1220 1219 1e-08 0.005
1019 1020 1220 1e-08 0.005
1020 1221 1220 1e-08 0.005
1020 1021 1222 1e-08 0.005
1020 1222 1221 1e-08 0.005
1021 1022 1222 1e-08 0.005
1022 1223 1222 1e-08 0.005
1022 1023 1224 1e-08 0.005
1022 1224 1223 1e-08 0.005
1023 1024 1224 1e-08 0.005
1024 1225 1224 1e-08 0.005
1024 1025 1226 1e-08 0.005
1024 1226 1225 1e-08 0.005
1025 1026 1226 1e-08 0.005
1026 1227 1226 1e-08 0.005
1026 1027 1228 1e-08 0.005
1026 1228 1227 1e-08 0.005
1027 1028 1228 1e-08 0.005
1028 1229 1228 1e-08 0.005
1028 1029 1230 1e-08 0.005
1028 1230 1229 1e-08 0.005
1029 1030 1230 1e-08 0.005
1030 1231 1230 1e-08 0.005
1030 1031 1232 1e-08 0.005
1030 1232 1231 1e-08 0.005
1031 1032 1232 1e-08 0.005
1032 1233 1232 1e-08 0.005
1032 1033 1234 1e-08 0.005
1032 1234 1233 1e-08 0.005
1033 1034 1234 1e-08 0.005
1034 1235 1234 1e-08 0.005
1034 1035 1236 1e-08 0.005
1034 1236 1235 1e-08 0.005
1035 1036 1236 1e-08 0.005
1036 1237 1236 1e-08 0.005
1036 1037 1238 1e-08 0.005
1036 1238 1237 1e-08 0.005
1037 1038 1238 1e-08 0.005
1038 1239 1238 1e-08 0.005
1038 1039 1240 1e-08 0.005
1038 1240 1239 1e-08 0.005
1039 1040 1240 1e-08 0.005
1040 1241 1240 1e-08 0.005
1040 1041 1242 1e-08 0.005
1040 1242 1241 1e-08 0.005
1041 1042 1242 1e-08 0.005
1042 1243 1242 1e-08 0.005
1042 1043 1244 1e-08 0.005
1042 1244 1243 1e-08 0.005
1043 1044 1244 1e-08 0.005
1044 1245 1244 1e-08 0.005
1044 1045 1246 1e-08 0.005
1044 1246 1245 1e-08 0.005
1045 1046 1246 1e-08 0.005
1046 1247 1246 1e-08 0.005
1046 1047 1248 1e-08 0.005
1046 1248 1247 1e-08 0.005
1047 1048 1248 1e-08 0.005
1048 1249 1248 1e-08 0.005
1048 1049 1250 1e-08 0.005
1048 1250 1249 1e-08 0.005
1049 1050 1250 1e-08 0.005
1050 1251 1250 1e-08 0.005
1050 1051 1252 1e-08 0.005
1050 1252 1251 1e-08 0.005
1051 1052 1252 1e-08 0.005
1052 1253 1252 1e-08 0.005
1052 1053 1254 1e-08 0.005
1052 1254 1253 1e-08 0.005
1053 1054 1254 1e-08 0.005
1054 1255 1254 1e-08 0.005
1054 1055 1256 1e-08 0.005
1054 1256 1255 1e-08 0.005
1055 1056 1256 1e-08 0.005
1056 1257 1256 1e-08 0.005
1056 1057 1258 1e-08 0.005
1056 1258 1257 1e-08 0.005
1057 1058 1258 1e-08 0.005
1058 1259 1258 1e-08 0.005
1058 1059 1260 1e-08 0.005
1058 1260 1259 1e-08 0.005
1059 1060 1260 1e-08 0.005
1060 1261 1260 1e-08 0.005
1060 1061 1262 1e-08 0.005
1060 1262 1261 1e-08 0.005
1061 1062 1262 1e-08 0.005
1062 1263 1262 1e-08 0.005
1062 1063 1264 1e-08 0.005
1062 1264 1263 1e-08 0.005
1063 1064 1264 1e-08 0.005
1064 1265 1264 1e-08 0.005
1064 1065 1266 1e-08 0.005
1064 1266 1265 1e-08 0.005
1065 1066 1266 1e-08 0.005
1066 1267 1266 1e-08 0.005
1066 1067 1268 1e-08 0.005
1066 1268 1267 1e-08 0.005
1067 1068 1268 1e-08 0.005
1068 1269 1268 1e-08 0.005
1068 1069 1270 1e-08 0.005
1068 1270 1269 1e-08 0.005
1069 1070 1270 1e-08 0.005
1070 1271 1270 1e-08 0.005
1070 1071 1272 1e-08 0.005
1070 1272 1271 1e-08 0.005
1071 1072 1272 1e-08 0.005
1072 1273 1272 1e-08 0.005
1072 1073 1274 1e-08 0.005
1072 1274 1273 1e-08 0.005
1073 1074 1274 1e-08 0.005
1074 1275 1274 1e-08 0.005
1074 1075 1276 1e-08 0.005
1074 1276 1275 1e-08 0.005
1075 1076 1276 1e-08 0.005
1076 1277 1276 1e-08 0.005
1076 1077 1278 1e-08 0.005
1076 1278 1277 1e-08 0.005
1077 1078 1278 1e-08 0.005
1078 1279 1278 1e-08 0.005
1078 1079 1280 1e-08 0.005
1078 1280 1279 1e-08 0.005
1079 1080 1280 1e-08 0.005
1080 1281 1280 1e-08 0.005
1080 1081 1282 1e-08 0.005
1080 1282 1281 1e-08 0.005
1081 1082 1282 1e-08 0.005
1082 1283 1282 1e-08 0.005
1082 1083 1284 1e-08 0.005
1082 1284 1283 1e-08 0.005
1083 1084 1284 1e-08 0.005
1084 1285 1284 1e-08 0.005
1084 1085 1286 1e-08 0.005
1084 1286 1285 1e-08 0.005
1085 1086 1286 1e-08 0.005
1086 1287 1286 1e-08 0.005
1086 1087 1288 1e-08 0.005
1086 1288 1287 1e-08 0.005
1087 1088 1288 1e-08 0.005
1088 1289 1288 1e-08 0.005
1088 1089 1290 1e-08 0.005
1088 1290 1289 1e-08 0.005
1089 1090 1290 1e-08 0.005
1090 1291 1290 1e-08 0.005
1090 1091 1292 1e-08 0.005
1090 1292 1291 1e-08 0.005
1091 1092 1292 1e-08 0.005
1092 1293 1292 1e-08 0.005
1092 1093 1294 1e-08 0.005
1092 1294 1293 1e-08 0.005
1093 1094 1294 1e-08 0.005
1094 1295 1294 1e-08 0.005
1094 1095 1296 1e-08 0.005
1094 1296 1295 1e-08 0.005
1095 1096 1296 1e-08 0.005
1096 1297 1296 1e-08 0.005
1096 1097 1298 1e-08 0.005
1096 1298 1297 1e-08 0.005
1097 1098 1298 1e-08 0.005
1098 1299 1298 1e-08 0.005
1098 1099 1300 1e-08 0.005
1098 1300 1299 1e-08 0.005
1099 1100 1300 1e-08 0.005
1100 1301 1300 1e-08 0.005
1100 1101 1302 1e-08 0.005
1100 1302 1301 1e-08 0.005
1101 1102 1302 1e-08 0.005
1102 1303 1302 1e-08 0.005
1102 1103 1304 1e-08 0.005
1102 1304 1303 1e-08 0.005
1103 1104 1304 1e-08 0.005
1104 1305 1304 1e-08 0.005
1104 1105 1306 1e-08 0.005
1104 1306 1305 1e-08 0.005
1105 1106 1306 1e-08 0.001
1106 1307 1306 1e-08 0.001
1106 1107 1308 1e-08 0.001
1106 1308 1307 1e-08 0.001
1107 1108 1308 1e-08 0.001
1108 1309 1308 1e-08 0.001
1108 1109 1310 1e-08 0.001
1108 1310 1309 1e-08 0.001
1109 1110 1310 1e-08 0.001
1110 1311 1310 1e-08 0.001
1110 1111 1312 1e-08 0.001
1110 1312 1311 1e-08 0.001
1111 1112 1312 1e-08 0.001
1112 1313 1312 1e-08 0.001
1112 1113 1314 1e-08 0.001
1112 1314 1313 1e-08 0.001
1113 1114 1314 1e-08 0.001
1114 1315 1314 1e-08 0.001
1114 1115 1316 1e-08 0.001
1114 1316 1315 1e-08 0.001
1115 1116 1316 1e-08 0.001
1116 1317 1316 1e-08 0.001
1116 1117 1318 1e-08 0.001
1116 1318 1317 1e-08 0.001
1117 1118 1318 1e-08 0.001
1118 1319 1318 1e-08 0.001
1118 1119 1320 1e-08 0.001
1118 1320 1319 1e-08 0.001
1119 1120 1320 1e-08 0.001
1120 1321 1320 1e-08 0.001
1120 1121 1322 1e-08 0.001
1120 1322 1321 1e-08 0.001
1121 1122 1322 1e-08 0.001
1122 1323 1322 1e-08 0.001
1122 1123 1324 1e-08 0.001
1122 1324 1323 1e-08 0.001
1123 1124 1324 1e-08 0.001
1124 1325 1324 1e-08 0.001
1124 1125 1326 1e-08 0.001
1124 1326 1325 1e-08 0.001
1125 1126 1326 1e-08 0.001
1126 1327 1326 1e-08 0.001
1126 1127 1328 1e-08 0.001
1126 1328 1327 1e-08 0.001
1127 1128 1328 1e-08 0.001
1128 1329 1328 1e-08 0.001
1128 1129 1330 1e-08 0.001
1128 1330 1329 1e-08 0.001
1129 1130 1330 1e-08 0.001
1130 1331 1330 1e-08 0.001
1130 1131 1332 1e-08 0.001
1130 1332 1331 1e-08 0.001
1131 1132 1332 1e-08 0.001
1132 1333 1332 1e-08 0.001
1132 1133 1334 1e-08 0.001
1132 1334 1333 1e-08 0.001
1133 1134 1334 1e-08 0.001
1134 1335 1334 1e-08 0.001
1134 1135 1336 1e-08 0.001
1134 1336 1335 1e-08 0.001
1135 1136 1336 1e-08 0.001
1136 1337 1336 1e-08 0.001
1136 1137 1338 1e-08 0.001
1136 1338 1337 1e-08 0.001
1137 1138 1338 1e-08 0.001
1138 1339 1338 1e-08 0.001
1138 1139 1340 1e-08 0.001
1138 1340 1339 1e-08 0.001
1139 1140 1340 1e-08 0.001
1140 1341 1340 1e-08 0.001
1140 1141 1342 1e-08 0.001
1140 1342 1341 1e-08 0.001
1141 1142 1342 1e-08 0.001
1142 1343 1342 1e-08 0.001
1142 1143 1344 1e-08 0.001
1142 1344 1343 1e-08 0.001
1143 1144 1344 1e-08 0.001
1144 1345 1344 1e-08 0.001
1144 1145 1346 1e-08 0.001
1144 1346 1345 1e-08 0.001
1145 1146 1346 1e-08 0.001
1146 1347 1346 1e-08 0.001
1146 1147 1348 1e-08 0.001
1146 1348 1347 1e-08 0.001
1147 1148 1348 1e-08 0.001
1148 1349 1348 1e-08 0.001
1148 1149 1350 1e-08 0.001
1148 1350 1349 1e-08 0.001
1149 1150 1350 1e-08 0.001
1150 1351 1350 1e-08 0.001
1150 1151 1352 1e-08 0.001
1150 1352 1351 1e-08 0.001
1151 1152 1352 1e-08 0.001
1152 1353 1352 1e-08 0.001
1152 1153 1354 1e-08 0.001
1152 1354 1353 1e-08 0.001
1153 1154 1354 1e-08 0.001
1154 1355 1354 1e-08 0.001
1154 1155 1356 1e-08 0.001
1154 1356 1355 1e-08 0.001
1155 1156 1356 1e-08 0.001
1156 1357 1356 1e-08 0.001
1156 1157 1358 1e-08 0.001
1156 1358 1357 1e-08 0.001
1157 1158 1358 1e-08 0.001
1158 1359 1358 1e-08 0.001
1158 1159 1360 1e-08 0.001
1158 1360 1359 1e-08 0.001
1159 1160 1360 1e-08 0.001
1160 1361 1360 1e-08 0.001
1160 1161 1362 1e-08 0.001
1160 1362 1361 1e-08 0.001
1161 1162 1362 1e-08 0.001
1162 1363 1362 1e-08 0.001
1162 1163 1364 1e-08 0.001
1162 1364 1363 1e-08 0.001
1163 1164 1364 1e-08 0.001
1164 1365 1364 1e-08 0.001
1164 1165 1366 1e-08 0.001
1164 1366 1365 1e-08 0.001
1165 1166 1366 1e-08 0.001
1166 1367 1366 1e-08 0.001
1166 1167 1368 1e-08 0.001
1166 1368 1367 1e-08 0.001
1167 1168 1368 1e-08 0.001
1168 1369 1368 1e-08 0.001
1168 1169 1370 1e-08 0.001
1168 1370 1369 1e-08 0.001
1169 1170 1370 1e-08 0.001
1170 1371 1370 1e-08 0.001
1170 1171 1372 1e-08 0.001
1170 1372 1371 1e-08 0.001
1171 1172 1372 1e-08 0.001
1172 1373 1372 1e-08 0.001
1172 1173 1374 1e-08 0.001
1172 1374 1373 1e-08 0.001
1173 1174 1374 1e-08 0.001
1174 1375 1374 1e-08 0.001
1174 1175 1376 1e-08 0.001
1174 1376 1375 1e-08 0.001
1175 1176 1376 1e-08 0.001
1176 1377 1376 1e-08 0.001
1176 1177 1378 1e-08 0.001
1176 1378 1377 1e-08 0.001
1177 1178 1378 1e-08 0.001
1178 1379 1378 1e-08 0.001
1178 1179 1380 1e-08 0.001
1178 1380 1379 1e-08 0.001
1179 1180 1380 1e-08 0.001
1180 1381 1380 1e-08 0.001
1180 1181 1382 1e-08 0.001
1180 1382 1381 1e-08 0.001
1181 1182 1382 1e-08 0.001
1182 1383 1382 1e-08 0.001
1182 1183 1384 1e-08 0.001
1182 1384 1383 1e-08 0.001
1183 1184 1384 1e-08 0.001
1184 1385 1384 1e-08 0.001
1184 1185 1386 1e-08 0.001
1184 1386 1385 1e-08 0.001
1185 1186 1386 1e-08 0.001
1186 1387 1386 1e-08 0.001
1186 1187 1388 1e-08 0.001
1186 1388 1387 1e-08 0.001
1187 1188 1388 1e-08 0.001
1188 1389 1388 1e-08 0.001
1188 1189 1390 1e-08 0.001
1188 1390 1389 1e-08 0.001
1189 1190 1390 1e-08 0.001
1190 1391 1390 1e-08 0.001
1190 1191 1392 1e-08 0.001
1190 1392 1391 1e-08 0.001
1191 1192 1392 1e-08 0.001
1192 1393 1392 1e-08 0.001
1192 1193 1394 1e-08 0.001
1192 1394 1393 1e-08 0.001
1193 1194 1394 1e-08 0.001
1194 1395 1394 1e-08 0.001
1194 1195 1396 1e-08 0.001
1194 1396 1395 1e-08 0.001
1195 1196 1396 1e-08 0.001
1196 1397 1396 1e-08 0.001
1196 1197 1398 1e-08 0.001
1196 1398 1397 1e-08 0.001
1197 1198 1398 1e-08 0.001
1198 1399 1398 1e-08 0.001
1198 1199 1400 1e-08 0.001
1198 1400 1399 1e-08 0.001
1199 1200 1400 1e-08 0.001
1200 1401 1400 1e-08 0.001
1200 1201 1402 1e-08 0.001
1200 1402 1401 1e-08 0.001
1201 1202 1402 1e-08 0.001
1202 1403 1402 1e-08 0.001
1202 1203 1404 1e-08 0.001
1202 1404 1403 1e-08 0.001
1203 1204 1404 1e-08 0.001
1204 1405 1404 1e-08 0.001
1204 1205 1406 1e-08 0.001
1204 1406 1405 1e-08 0.001
1206 1207 1408 1e-08 0.005
1206 1408 1407 1e-08 0.005
1207 1208 1408 1e-08 0.005
1208 1409 1408 1e-08 0.005
1208 1209 1410 1e-08 0.005
1208 1410 1409 1e-08 0.005
1209 1210 1410 1e-08 0.005
1210 1411 1410 1e-08 0.005
1210 1211 1412 1e-08 0.005
1210 1412 1411 1e-08 0.005
1211 1212 1412 1e-08 0.005
1212 1413 1412 1e-08 0.005
1212 1213 1414 1e-08 0.005
1212 1414 1413 1e-08 0.005
1213 1214 1414 1e-08 0.005
1214 1415 1414 1e-08 0.005
1214 1215 1416 1e-08 0.005
1214 1416 1415 1e-08 0.005
1215 1216 1416 1e-08 0.005
1216 1417 1416 1e-08 0.005
1216 1217 1418 1e-08 0.005
1216 1418 1417 1e-08 0.005
1217 1218 1418 1e-08 0.005
1218 1419 1418 1e-08 0.005
1218 1219 1420 1e-08 0.005
1218 1420 1419 1e-08 0.005
1219 1220 1420 1e-08 0.005
1220 1421 1420 1e-08 0.005
1220 1221 1422 1e-08 0.005
1220 1422 1421 1e-08 0.005
1221 1222 1422 1e-08 0.005
1222 1423 1422 1e-08 0.005
1222 1223 1424 1e-08 0.005
1222 1424 1423 1e-08 0.005
1223 1224 1424 1e-08 0.005
1224 1425 1424 1e-08 0.005
1224 1225 1426 1e-08 0.005
1224 1426 1425 1e-08 0.005
1225 1226 1426 1e-08 0.005
1226 1427 1426 1e-08 0.005
1226 1227 1428 1e-08 0.005
1226 1428 1427 1e-08 0.005
1227 1228 1428 1e-08 0.005
1228 1429 1428 1e-08 0.005
1228 1229 1430 1e-08 0.005
1228 1430 1429 1e-08 0.005
1229 1230 1430 1e-08 0.005
1230 1431 1430 1e-08 0.005
1230 1231 1432 1e-08 0.005
1230 1432 1431 1e-08 0.005
1231 1232 1432 1e-08 0.005
1232 1433 1432 1e-08 0.005
1232 1233 1434 1e-08 0.005
1232 1434 1433 1e-08 0.005
1233 1234 1434 1e-08 0.005
1234 1435 1434 1e-08 0.005
1234 1235 1436 1e-08 0.005
1234 1436 1435 1e-08 0.005
1235 1236 1436 1e-08 0.005
1236 1437 1436 1e-08 0.005
1236 1237 1438 1e-08 0.005
1236 1438 1437 1e-08 0.005
1237 1238 1438 1e-08 0.005
1238 1439 1438 1e-08 0.005
1238 1239 1440 1e-08 0.005
1238 1440 1439 1e-08 0.005
1239 1240 1440 1e-08 0.005
1240 1441 1440 1e-08 0.005
1240 1241 1442 1e-08 0.005
1240 1442 1441 1e-08 0.005
1241 1242 1442 1e-08 0.005
1242 1443 1442 1e-08 0.005
1242 1243 1444 1e-08 0.005
1242 1444 1443 1e-08 0.005
1243 1244 1444 1e-08 0.005
1244 1445 1444 1e-08 0.005
1244 1245 1446 1e-08 0.005
1244 1446 1445 1e-08 0.005
1245 1246 1446 1e-08 0.005
1246 1447 1446 1e-08 0.005
1246 1247 1448 1e-08 0.005
1246 1448 1447 1e-08 0.005
1247 1248 1448 1e-08 0.005
1248 1449 1448 1e-08 0.005
1248 1249 1450 1e-08 0.005
1248 1450 1449 1e-08 0.005
1249 1250 1450 1e-08 0.005
1250 1451 1450 1e-08 0.005
1250 1251 1452 1e-08 0.005
1250 1452 1451 1e-08 0.005
1251 1252 1452 1e-08 0.005
1252 1453 1452 1e-08 0.005
1252 1253 1454 1e-08 0.005
1252 1454 1453 1e-08 0.005
1253 1254 1454 1e-08 0.005
1254 1455 1454 1e-08 0.005
1254 1255 1456 1e-08 0.005
1254 1456 1455 1e-08 0.005
1255 1256 1456 1e-08 0.005
1256 1457 1456 1e-08 0.005
1256 1257 1458 1e-08 0.005
1256 1458 1457 1e-08 0.005
1257 1258 1458 1e-08 0.005
1258 1459 1458 1e-08 0.005
1258 1259 1460 1e-08 0.005
1258 1460 1459 1e-08 0.005
1259 1260 1460 1e-08 0.005
1260 1461 1460 1e-08 0.005
1260 1261 1462 1e-08 0.005
1260 1462 1461 1e-08 0.005
1261 1262 1462 1e-08 0.005
1262 1463 1462 1e-08 0.005
1262 1263 1464 1e-08 0.005
1262 1464 1463 1e-08 0.005
1263 1264 1464 1e-08 0.005
1264 1465 1464 1e-08 0.005
1264 1265 1466 1e-08 0.005
1264 1466 1465 1e-08 0.005
1265 1266 1466 1e-08 0.005
1266 1467 1466 1e-08 0.005
1266 1267 1468 1e-08 0.005
1266 1468 1467 1e-08 0.005
1267 1268 1468 1e-08 0.005
1268 1469 1468 1e-08 0.005
1268 1269 1470 1e-08 0.005
1268 1470 1469 1e-08 0.005
1269 1270 1470 1e-08 0.005
1270 1471 1470 1e-08 0.005
1270 1271 1472 1e-08 0.005
1270 1472 1471 1e-08 0.005
1271 1272 1472 1e-08 0.005
1272 1473 1472 1e-08 0.005
1272 1273 1474 1e-08 0.005
1272 1474 1473 1e-08 0.005
1273 1274 1474 1e-08 0.005
1274 1475 1474 1e-08 0.005
1274 1275 1476 1e-08 0.005
1274 1476 1475 1e-08 0.005
1275 1276 1476 1e-08 0.005
1276 1477 1476 1e-08 0.005
1276 1277 1478 1e-08 0.005
1276 1478 1477 1e-08 0.005
1277 1278 1478 1e-08 0.005
1278 1479 1478 1e-08 0.005
1278 1279 1480 1e-08 0.005
1278 1480 1479 1e-08 0.005
1279 1280 1480 1e-08 0.005
1280 1481 1480 1e-08 0.005
1280 1281 1482 1e-08 0.005
1280 1482 1481 1e-08 0.005
1281 1282 1482 1e-08 0.005
1282 1483 1482 1e-08 0.005
1282 1283 1484 1e-08 0.005
1282 1484 1483 1e-08 0.005
1283 1284 1484 1e-08 0.005
1284 1485 1484 1e-08 0.005
1284 1285 1486 1e-08 0.005
1284 1486 1485 1e-08 0.005
1285 1286 1486 1e-08 0.005
1286 1487 1486 1e-08 0.005
1286 1287 1488 1e-08 0.005
1286 1488 1487 1e-08 0.005
1287 1288 1488 1e-08 0.005
1288 1489 1488 1e-08 0.005
1288 1289 1490 1e-08 0.005
1288 1490 1489 1e-08 0.005
1289 1290 1490 1e-08 0.005
1290 1491 1490 1e-08 0.005
1290 1291 1492 1e-08 0.005
1290 1492 1491 1e-08 0.005
1291 1292 1492 1e-08 0.005
1292 1493 1492 1e-08 0.005
1292 1293 1494 1e-08 0.005
1292 1494 1493 1e-08 0.005
1293 1294 1494 1e-08 0.005
1294 1495 1494 1e-08 0.005
1294 1295 1496 1e-08 0.005
1294 1496 1495 1e-08 0.005
1295 1296 1496 1e-08 0.005
1296 1497 1496 1e-08 0.005
1296 1297 1498 1e-08 0.005
1296 1498 1497 1e-08 0.005
1297 1298 1498 1e-08 0.005
1298 1499 1498 1e-08 0.005
1298 1299 1500 1e-08 0.005
1298 1500 1499 1e-08 0.005
1299 1300 1500 1e-08 0.005
1300 1501 1500 1e-08 0.005
1300 1301 1502 1e-08 0.005
1300 1502 1501 1e-08 0.005
1301 1302 1502 1e-08 0.005
1302 1503 1502 1e-08 0.005
1302 1303 1504 1e-08 0.005
1302 1504 1503 1e-08 0.005
1303 1304 1504 1e-08 0.005
1304 1505 1504 1e-08 0.005
1304 1305 1506 1e-08 0.005
1304 1506 1505 1e-08 0.005
1305 1306 1506 1e-08 0.005
1306 1507 1506 1e-08 0.005
1306 1307 1508 1e-08 0.001
1306 1508 1507 1e-08 0.001
1307 1308 1508 1e-08 0.001
1308 1509 1508 1e-08 0.001
1308 1309 1510 1e-08 0.001
1308 1510 1509 1e-08 0.001
1309 1310 1510 1e-08 0.001
1310 1511 1510 1e-08 0.001
1310 1311 1512 1e-08 0.001
1310 1512 1511 1e-08 0.001
1311 1312 1512 1e-08 0.001
1312 1513 1512 1e-08 0.001
1312 1313 1514 1e-08 0.001
1312 1514 1513 1e-08 0.001
1313 1314 1514 1e-08 0.001
1314 1515 1514 1e-08 0.001
1314 1315 1516 1e-08 0.001
1314 1516 1515 1e-08 0.001
1315 1316 1516 1e-08 0.001
1316 1517 1516 1e-08 0.001
1316 1317 1518 1e-08 0.001
1316 1518 1517 1e-08 0.001
1317 1318 1518 1e-08 0.001
1318 1519 1518 1e-08 0.001
1318 1319 1520 1e-08 0.001
1318 1520 1519 1e-08 0.001
1319 1320 1520 1e-08 0.001
1320 1521 1520 1e-08 0.001
1320 1321 1522 1e-08 0.001
1320 1522 1521 1e-08 0.001
1321 1322 1522 1e-08 0.001
1322 1523 1522 1e-08 0.001
1322 1323 1524 1e-08 0.001
1322 1524 1523 1e-08 0.001
1323 1324 1524 1e-08 0.001
1324 1525 1524 1e-08 0.001
1324 1325 1526 1e-08 0.001
1324 1526 1525 1e-08 0.001
1325 1326 1526 1e-08 0.001
1326 1527 1526 1e-08 0.001
1326 1327 1528 1e-08 0.001
1326 1528 1527 1e-08 0.001
1327 1328 1528 1e-08 0.001
1328 1529 1528 1e-08 0.001
1328 1329 1530 1e-08 0.001
1328 1530 1529 1e-08 0.001
1329 1330 1530 1e-08 0.001
1330 1531 1530 1e-08 0.001
1330 1331 1532 1e-08 0.001
1330 1532 1531 1e-08 0.001
1331 1332 1532 1e-08 0.001
1332 1533 1532 1e-08 0.001
1332 1333 1534 1e-08 0.001
1332 1534 1533 1e-08 0.001
1333 1334 1534 1e-08 0.001
1334 1535 1534 1e-08 0.001
1334 1335 1536 1e-08 0.001
1334 1536 1535 1e-08 0.001
1335 1336 1536 1e-08 0.001
1336 1537 1536 1e-08 0.001
1336 1337 1538 1e-08 0.001
1336 1538 1537 1e-08 0.001
1337 1338 1538 1e-08 0.001
1338 1539 1538 1e-08 0.001
1338 1339 1540 1e-08 0.001
1338 1540 1539 1e-08 0.001
1339 1340 1540 1e-08 0.001
1340 1541 1540 1e-08 0.001
1340 1341 1542 1e-08 0.001
1340 1542 1541 1e-08 0.001
1341 1342 1542 1e-08 0.001
1342 1543 1542 1e-08 0.001
1342 1343 1544 1e-08 0.001
1342 1544 1543 1e-08 0.001
1343 1344 1544 1e-08 0.001
1344 1545 1544 1e-08 0.001
1344 1345 1546 1e-08 0.001
1344 1546 1545 1e-08 0.001
1345 1346 1546 1e-08 0.001
1346 1547 1546 1e-08 0.001
1346 1347 1548 1e-08 0.001
1346 1548 1547 1e-08 0.001
1347 1348 1548 1e-08 0.001
1348 1549 1548 1e-08 0.001
1348 1349 1550 1e-08 0.001
1348 1550 1549 1e-08 0.001
1349 1350 1550 1e-08 0.001
1350 1551 1550 1e-08 0.001
1350 1351 1552 1e-08 0.001
1350 1552 1551 1e-08 0.001
1351 1352 1552 1e-08 0.001
1352 1553 1552 1e-08 0.001
1352 1353 1554 1e-08 0.001
1352 1554 1553 1e-08 0.001
1353 1354 1554 1e-08 0.001
1354 1555 1554 1e-08 0.001
1354 1355 1556 1e-08 0.001
1354 1556 1555 1e-08 0.001
1355 1356 1556 1e-08 0.001
1356 1557 1556 1e-08 0.001
1356 1357 1558 1e-08 0.001
1356 1558 1557 1e-08 0.001
1357 1358 1558 1e-08 0.001
1358 1559 1558 1e-08 0.001
1358 1359 1560 1e-08 0.001
1358 1560 1559 1e-08 0.001
1359 1360 1560 1e-08 0.001
1360 1561 1560 1e-08 0.001
1360 1361 1562 1e-08 0.001
1360 1562 1561 1e-08 0.001
1361 1362 1562 1e-08 0.001
1362 1563 1562 1e-08 0.001
1362 1363 1564 1e-08 0.001
1362 1564 1563 1e-08 0.001
1363 1364 1564 1e-08 0.001
1364 1565 1564 1e-08 0.001
1364 1365 1566 1e-08 0.001
1364 1566 1565 1e-08 0.001
1365 1366 1566 1e-08 0.001
1366 1567 1566 1e-08 0.001
1366 1367 1568 1e-08 0.001
1366 1568 1567 1e-08 0.001
1367 1368 1568 1e-08 0.001
1368 1569 1568 1e-08 0.001
1368 1369 1570 1e-08 0.001
1368 1570 1569 1e-08 0.001
1369 1370 1570 1e-08 0.001
1370 1571 1570 1e-08 0.001
1370 1371 1572 1e-08 0.001
1370 1572 1571 1e-08 0.001
1371 1372 1572 1e-08 0.001
1372 1573 1572 1e-08 0.001
1372 1373 1574 1e-08 0.001
1372 1574 1573 1e-08 0.001
1373 1374 1574 1e-08 0.001
1374 1575 1574 1e-08 0.001
1374 1375 1576 1e-08 0.001
1374 1576 1575 1e-08 0.001
1375 1376 1576 1e-08 0.001
1376 1577 1576 1e-08 0.001
1376 1377 1578 1e-08 0.001
1376 1578 1577 1e-08 0.001
1377 1378 1578 1e-08 0.001
1378 1579 1578 1e-08 0.001
1378 1379 1580 1e-08 0.001
1378 1580 1579 1e-08 0.001
1379 1380 1580 1e-08 0.001
1380 1581 1580 1e-08 0.001
1380 1381 1582 1e-08 0.001
1380 1582 1581 1e-08 0.001
1381 1382 1582 1e-08 0.001
1382 1583 1582 1e-08 0.001
1382 1383 1584 1e-08 0.001
1382 1584 1583 1e-08 0.001
1383 1384 1584 1e-08 0.001
1384 1585 1584 1e-08 0.001
1384 1385 1586 1e-08 0.001
1384 1586 1585 1e-08 0.001
1385 1386 1586 1e-08 0.001
1386 1587 1586 1e-08 0.001
1386 1387 1588 1e-08 0.001
1386 1588 1587 1e-08 0.001
1387 1388 1588 1e-08 0.001
1388 1589 1588 1e-08 0.001
1388 1389 1590 1e-08 0.001
1388 1590 1589 1e-08 0.001
1389 1390 1590 1e-08 0.001
1390 1591 1590 1e-08 0.001
1390 1391 1592 1e-08 0.001
1390 1592 1591 1e-08 0.001
1391 1392 1592 1e-08 0.001
1392 1593 1592 1e-08 0.001
1392 1393 1594 1e-08 0.001
1392 1594 1593 1e-08 0.001
1393 1394 1594 1e-08 0.001
1394 1595 1594 1e-08 0.001
1394 1395 1596 1e-08 0.001
1394 1596 1595 1e-08 0.001
1395 1396 1596 1e-08 0.001
1396 1597 1596 1e-08 0.001
1396 1397 1598 1e-08 0.001
1396 1598 1597 1e-08 0.001
1397 1398 1598 1e-08 0.001
1398 1599 1598 1e-08 0.001
1398 1399 1600 1e-08 0.001
1398 1600 1599 1e-08 0.001
1399 1400 1600 1e-08 0.001
1400 1601 1600 1e-08 0.001
1400 1401 1602 1e-08 0.001
1400 1602 1601 1e-08 0.001
1401 1402 1602 1e-08 0.001
1402 1603 1602 1e-08 0.001
1402 1403 1604 1e-08 0.001
1402 1604 1603 1e-08 0.001
1403 1404 1604 1e-08 0.001
1404 1605 1604 1e-08 0.001
1404 1405 1606 1e-08 0.001
1404 1606 1605 1e-08 0.001
1405 1406 1606 1e-08 0.001
1406 1607 1606 1e-08 0.001
1407 1408 1608 1e-08 0.005
1408 1609 1608 1e-08 0.005
1408 1409 1610 1e-08 0.005
1408 1610 1609 1e-08 0.005
1409 1410 1610 1e-08 0.005
1410 1611 1610 1e-08 0.005
1410 1411 1612 1e-08 0.005
1410 1612 1611 1e-08 0.005
1411 1412 1612 1e-08 0.005
1412 1613 1612 1e-08 0.005
1412 1413 1614 1e-08 0.005
1412 1614 1613 1e-08 0.005
1413 1414 1614 1e-08 0.005
1414 1615 1614 1e-08 0.005
1414 1415 1616 1e-08 0.005
1414 1616 1615 1e-08 0.005
1415 1416 1616 1e-08 0.005
1416 1617 1616 1e-08 0.005
1416 1417 1618 1e-08 0.005
1416 1618 1617 1e-08 0.005
1417 1418 1618 1e-08 0.005
1418 1619 1618 1e-08 0.005
1418 1419 1620 1e-08 0.005
1418 1620 1619 1e-08 0.005
1419 1420 1620 1e-08 0.005
1420 1621 1620 1e-08 0.005
1420 1421 1622 1e-08 0.005
1420 1622 1621 1e-08 0.005
1421 1422 1622 1e-08 0.005
1422 1623 1622 1e-08 0.005
1422 1423 1624 1e-08 0.005
1422 1624 1623 1e-08 0.005
1423 1424 1624 1e-08 0.005
1424 1625 1624 1e-08 0.005
1424 1425 1626 1e-08 0.005
1424 1626 1625 1e-08 0.005
1425 1426 1626 1e-08 0.005
1426 1627 1626 1e-08 0.005
1426 1427 1628 1e-08 0.005
1426 1628 1627 1e-08 0.005
1427 1428 1628 1e-08 0.005
1428 1629 1628 1e-08 0.005
1428 1429 1630 1e-08 0.005
1428 1630 1629 1e-08 0.005
1429 1430 1630 1e-08 0.005
1430 1631 1630 1e-08 0.005
1430 1431 1632 1e-08 0.005
1430 1632 1631 1e-08 0.005
1431 1432 1632 1e-08 0.005
1432 1633 1632 1e-08 0.005
1432 1433 1634 1e-08 0.005
1432 1634 1633 1e-08 0.005
1433 1434 1634 1e-08 0.005
1434 1635 1634 1e-08 0.005
1434 1435 1636 1e-08 0.005
1434 1636 1635 1e-08 0.005
1435 1436 1636 1e-08 0.005
1436 1637 1636 1e-08 0.005
1436 1437 1638 1e-08 0.005
1436 1638 1637 1e-08 0.005
1437 1438 1638 1e-08 0.005
1438 1639 1638 1e-08 0.005
1438 1439 1640 1e-08 0.005
1438 1640 1639 1e-08 0.005
1439 1440 1640 1e-08 0.005
1440 1641 1640 1e-08 0.005
1440 1441 1642 1e-08 0.005
1440 1642 1641 1e-08 0.005
1441 1442 1642 1e-08 0.005
1442 1643 1642 1e-08 0.005
1442 1443 1644 1e-08 0.005
1442 1644 1643 1e-08 0.005
1443 1444 1644 1e-08 0.005
1444 1645 1644 1e-08 0.005
1444 1445 1646 1e-08 0.005
1444 1646 1645 1e-08 0.005
1445 1446 1646 1e-08 0.005
1446 1647 1646 1e-08 0.005
1446 1447 1648 1e-08 0.005
1446 1648 1647 1e-08 0.005
1447 1448 1648 1e-08 0.005
1448 1649 1648 1e-08 0.005
1448 1449 1650 1e-08 0.005
1448 1650 1649 1e-08 0.005
1449 1450 1650 1e-08 0.005
1450 1651 1650 1e-08 0.005
1450 1451 1652 1e-08 0.005
1450 1652 1651 1e-08 0.005
1451 1452 1652 1e-08 0.005
1452 1653 1652 1e-08 0.005
1452 1453 1654 1e-08 0.005
1452 1654 1653 1e-08 0.005
1453 1454 1654 1e-08 0.005
1454 1655 1654 1e-08 0.005
1454 1455 1656 1e-08 0.005
1454 1656 1655 1e-08 0.005
1455 1456 1656 1e-08 0.005
1456 1657 1656 1e-08 0.005
1456 1457 1658 1e-08 0.005
1456 1658 1657 1e-08 0.005
1457 1458 1658 1e-08 0.005
1458 1659 1658 1e-08 0.005
1458 1459 1660 1e-08 0.005
1458 1660 1659 1e-08 0.005
1459 1460 1660 1e-08 0.005
1460 1661 1660 1e-08 0.005
1460 1461 1662 1e-08 0.005
1460 1662 1661 1e-08 0.005
1461 1462 1662 1e-08 0.005
1462 1663 1662 1e-08 0.005
1462 1463 1664 1e-08 0.005
1462 1664 1663 1e-08 0.005
1463 1464 1664 1e-08 0.005
1464 1665 1664 1e-08 0.005
1464 1465 1666 1e-08 0.005
1464 1666 1665 1e-08 0.005
1465 1466 1666 1e-08 0.005
1466 1667 1666 1e-08 0.005
1466 1467 1668 1e-08 0.005
1466 1668 1667 1e-08 0.005
1467 1468 1668 1e-08 0.005
1468 1669 1668 1e-08 0.005
1468 1469 1670 1e-08 0.005
1468 1670 1669 1e-08 0.005
1469 1470 1670 1e-08 0.005
1470 1671 1670 1e-08 0.005
1470 1471 1672 1e-08 0.005
1470 1672 1671 1e-08 0.005
1471 1472 1672 1e-08 0.005
1472 1673 1672 1e-08 0.005
1472 1473 1674 1e-08 0.005
1472 1674 1673 1e-08 0.005
1473 1474 1674 1e-08 0.005
1474 1675 1674 1e-08 0.005
1474 1475 1676 1e-08 0.005
1474 1676 1675 1e-08 0.005
1475 1476 1676 1e-08 0.005
1476 1677 1676 1e-08 0.005
1476 1477 1678 1e-08 0.005
1476 1678 1677 1e-08 0.005
1477 1478 1678 1e-08 0.005
1478 1679 1678 1e-08 0.005
1478 1479 1680 1e-08 0.005
1478 1680 1679 1e-08 0.005
1479 1480 1680 1e-08 0.005
1480 1681 1680 1e-08 0.005
1480 1481 1682 1e-08 0.005
1480 1682 1681 1e-08 0.005
1481 1482 1682 1e-08 0.005
1482 1683 1682 1e-08 0.005
1482 1483 1684 1e-08 0.005
1482 1684 1683 1e-08 0.005
1483 1484 1684 1e-08 0.005
1484 1685 1684 1e-08 0.005
1484 1485 1686 1e-08 0.005
1484 1686 1685 1e-08 0.005
1485 1486 1686 1e-08 0.005
1486 1687 1686 1e-08 0.005
1486 1487 1688 1e-08 0.005
1486 1688 1687 1e-08 0.005
1487 1488 1688 1e-08 0.005
1488 1689 1688 1e-08 0.005
1488 1489 1690 1e-08 0.005
1488 1690 1689 1e-08 0.005
1489 1490 1690 1e-08 0.005
1490 1691 1690 1e-08 0.005
1490 1491 1692 1e-08 0.005
1490 1692 1691 1e-08 0.005
1491 1492 1692 1e-08 0.005
1492 1693 1692 1e-08 0.005
1492 1493 1694 1e-08 0.005
1492 1694 1693 1e-08 0.005
1493 1494 1694 1e-08 0.005
1494 1695 1694 1e-08 0.005
1494 1495 1696 1e-08 0.005
1494 1696 1695 1e-08 0.005
1495 1496 1696 1e-08 0.005
1496 1697 1696 1e-08 0.005
1496 1497 1698 1e-08 0.005
1496 1698 1697 1e-08 0.005
1497 1498 1698 1e-08 0.005
1498 1699 1698 1e-08 0.005
1498 1499 1700 1e-08 0.005
1498 1700 1699 1e-08 0.005
1499 1500 1700 1e-08 0.005
1500 1701 1700 1e-08 0.005
1500 1501 1702 1e-08 0.005
1500 1702 1701 1e-08 0.005
1501 1502 1702 1e-08 0.005
1502 1703 1702 1e-08 0.005
1502 1503 1704 1e-08 0.005
1502 1704 1703 1e-08 0.005
1503 1504 1704 1e-08 0.005
1504 1705 1704 1e-08 0.005
1504 1505 1706 1e-08 0.005
1504 1706 1705 1e-08 0.005
1505 1506 1706 1e-08 0.005
1506 1707 1706 1e-08 0.005
1506 1507 1708 1e-08 0.005
1506 1708 1707 1e-08 0.005
1507 1508 1708 1e-08 0.001
1508 1709 1708 1e-08 0.001
1508 1509 1710 1e-08 0.001
1508 1710 1709 1e-08 0.001
1509 1510 1710 1e-08 0.001
1510 1711 1710 1e-08 0.001
1510 1511 1712 1e-08 0.001
1510 1712 1711 1e-08 0.001
1511 1512 1712 1e-08 0.001
1512 1713 1712 1e-08 0.001
1512 1513 1714 1e-08 0.001
1512 1714 1713 1e-08 0.001
1513 1514 1714 1e-08 0.001
1514 1715 1714 1e-08 0.001
1514 1515 1716 1e-08 0.001
1514 1716 1715 1e-08 0.001
1515 1516 1716 1e-08 0.001
1516 1717 1716 1e-08 0.001
1516 1517 1718 1e-08 0.001
1516 1718 1717 1e-08 0.001
1517 1518 1718 1e-08 0.001
1518 1719 1718 1e-08 0.001
1518 1519 1720 1e-08 0.001
1518 1720 1719 1e-08 0.001
1519 1520 1720 1e-08 0.001
1520 1721 1720 1e-08 0.001
1520 1521 1722 1e-08 0.001
1520 1722 1721 1e-08 0.001
1521 1522 1722 1e-08 0.001
1522 1723 1722 1e-08 0.001
1522 1523 1724 1e-08 0.001
1522 1724 1723 1e-08 0.001
1523 1524 1724 1e-08 0.001
1524 1725 1724 1e-08 0.001
1524 1525 1726 1e-08 0.001
1524 1726 1725 1e-08 0.001
1525 1526 1726 1e-08 0.001
1526 1727 1726 1e-08 0.001
1526 1527 1728 1e-08 0.001
1526 1728 1727 1e-08 0.001
1527 1528 1728 1e-08 0.001
1528 1729 1728 1e-08 0.001
1528 1529 1730 1e-08 0.001
1528 1730 1729 1e-08 0.001
1529 1530 1730 1e-08 0.001
1530 1731 1730 1e-08 0.001
1530 1531 1732 1e-08 0.001
1530 1732 1731 1e-08 0.001
1531 1532 1732 1e-08 0.001
1532 1733 1732 1e-08 0.001
1532 1533 1734 1e-08 0.001
1532 1734 1733 1e-08 0.001
1533 1534 1734 1e-08 0.001
1534 1735 1734 1e-08 0.001
1534 1535 1736 1e-08 0.001
1534 1736 1735 1e-08 0.001
1535 1536 1736 1e-08 0.001
1536 1737 1736 1e-08 0.001
1536 1537 1738 1e-08 0.001
1536 1738 1737 1e-08 0.001
1537 1538 1738 1e-08 0.001
1538 1739 1738 1e-08 0.001
1538 1539 1740 1e-08 0.001
1538 1740 1739 1e-08 0.001
1539 1540 1740 1e-08 0.001
1540 1741 1740 1e-08 0.001
1540 1541 1742 1e-08 0.001
1540 1742 1741 1e-08 0.001
1541 1542 1742 1e-08 0.001
1542 1743 1742 1e-08 0.001
1542 1543 1744 1e-08 0.001
1542 1744 1743 1e-08 0.001
1543 1544 1744 1e-08 0.001
1544 1745 1744 1e-08 0.001
1544 1545 1746 1e-08 0.001
1544 1746 1745 1e-08 0.001
1545 1546 1746 1e-08 0.001
1546 1747 1746 1e-08 0.001
1546 1547 1748 1e-08 0.001
1546 1748 1747 1e-08 0.001
1547 1548 1748 1e-08 0.001
1548 1749 1748 1e-08 0.001
1548 1549 1750 1e-08 0.001
1548 1750 1749 1e-08 0.001
1549 1550 1750 1e-08 0.001
1550 1751 1750 1e-08 0.001
1550 1551 1752 1e-08 0.001
1550 1752 1751 1e-08 0.001
1551 1552 1752 1e-08 0.001
1552 1753 1752 1e-08 0.001
1552 1553 1754 1e-08 0.001
1552 1754 1753 1e-08 0.001
1553 1554 1754 1e-08 0.001
1554 1755 1754 1e-08 0.001
1554 1555 1756 1e-08 0.001
1554 1756 1755 1e-08 0.001
1555 1556 1756 1e-08 0.001
1556 1757 1756 1e-08 0.001
1556 1557 1758 1e-08 0.001
1556 1758 1757 1e-08 0.001
1557 1558 1758 1e-08 0.001
1558 1759 1758 1e-08 0.001
1558 1559 1760 1e-08 0.001
1558 1760 1759 1e-08 0.001
1559 1560 1760 1e-08 0.001
1560 1761 1760 1e-08 0.001
1560 1561 1762 1e-08 0.001
1560 1762 1761 1e-08 0.001
1561 1562 1762 1e-08 0.001
1562 1763 1762 1e-08 0.001
1562 1563 1764 1e-08 0.001
1562 1764 1763 1e-08 0.001
1563 1564 1764 1e-08 0.001
1564 1765 1764 1e-08 0.001
1564 1565 1766 1e-08 0.001
1564 1766 1765 1e-08 0.001
1565 1566 1766 1e-08 0.001
1566 1767 1766 1e-08 0.001
1566 1567 1768 1e-08 0.001
1566 1768 1767 1e-08 0.001
1567 1568 1768 1e-08 0.001
1568 1769 1768 1e-08 0.001
1568 1569 1770 1e-08 0.001
1568 1770 1769 1e-08 0.001
1569 1570 1770 1e-08 0.001
1570 1771 1770 1e-08 0.001
1570 1571 1772 1e-08 0.001
1570 1772 1771 1e-08 0.001
1571 1572 1772 1e-08 0.001
1572 1773 1772 1e-08 0.001
1572 1573 1774 1e-08 0.001
1572 1774 1773 1e-08 0.001
1573 1574 1774 1e-08 0.001
1574 1775 1774 1e-08 0.001
1574 1575 1776 1e-08 0.001
1574 1776 1775 1e-08 0.001
1575 1576 1776 1e-08 0.001
1576 1777 1776 1e-08 0.001
1576 1577 1778 1e-08 0.001
1576 1778 1777 1e-08 0.001
1577 1578 1778 1e-08 0.001
1578 1779 1778 1e-08 0.001
1578 1579 1780 1e-08 0.001
1578 1780 1779 1e-08 0.001
1579 1580 1780 1e-08 0.001
1580 1781 1780 1e-08 0.001
1580 1581 1782 1e-08 0.001
1580 1782 1781 1e-08 0.001
1581 1582 1782 1e-08 0.001
1582 1783 1782 1e-08 0.001
1582 1583 1784 1e-08 0.001
1582 1784 1783 1e-08 0.001
1583 1584 1784 1e-08 0.001
1584 1785 1784 1e-08 0.001
1584 1585 1786 1e-08 0.001
1584 1786 1785 1e-08 0.001
1585 1586 1786 1e-08 0.001
1586 1787 1786 1e-08 0.001
1586 1587 1788 1e-08 0.001
1586 1788 1787 1e-08 0.001
1587 1588 1788 1e-08 0.001
1588 1789 1788 1e-08 0.001
1588 1589 1790 1e-08 0.001
1588 1790 1789 1e-08 0.001
1589 1590 1790 1e-08 0.001
1590 1791 1790 1e-08 0.001
1590 1591 1792 1e-08 0.001
1590 1792 1791 1e-08 0.001
1591 1592 1792 1e-08 0.001
1592 1793 1792 1e-08 0.001
1592 1593 1794 1e-08 0.001
1592 1794 1793 1e-08 0.001
1593 1594 1794 1e-08 0.001
1594 1795 1794 1e-08 0.001
1594 1595 1796 1e-08 0.001
1594 1796 1795 1e-08 0.001
1595 1596 1796 1e-08 0.001
1596 1797 1796 1e-08 0.001
1596 1597 1798 1e-08 0.001
1596 1798 1797 1e-08 0.001
1597 1598 1798 1e-08 0.001
1598 1799 1798 1e-08 0.001
1598 1599 1800 1e-08 0.001
1598 1800 1799 1e-08 0.001
1599 1600 1800 1e-08 0.001
1600 1801 1800 1e-08 0.001
1600 1601 1802 1e-08 0.001
1600 1802 1801 1e-08 0.001
1601 1602 1802 1e-08 0.001
1602 1803 1802 1e-08 0.001
1602 1603 1804 1e-08 0.001
1602 1804 1803 1e-08 0.001
1603 1604 1804 1e-08 0.001
1604 1805 1804 1e-08 0.001
1604 1605 1806 1e-08 0.001
1604 1806 1805 1e-08 0.001
1605 1606 1806 1e-08 0.001
1606 1807 1806 1e-08 0.001
1606 1607 1808 1e-08 0.001
1606 1808 1807 1e-08 0.001
1608 1609 1810 1e-08 0.005
1608 1810 1809 1e-08 0.005
1609 1610 1810 1e-08 0.005
1610 1811 1810 1e-08 0.005
1610 1611 1812 1e-08 0.005
1610 1812 1811 1e-08 0.005
1611 1612 1812 1e-08 0.005
1612 1813 1812 1e-08 0.005
1612 1613 1814 1e-08 0.005
1612 1814 1813 1e-08 0.005
1613 1614 1814 1e-08 0.005
1614 1815 1814 1e-08 0.005
1614 1615 1816 1e-08 0.005
1614 1816 1815 1e-08 0.005
1615 1616 1816 1e-08 0.005
1616 1817 1816 1e-08 0.005
1616 1617 1818 1e-08 0.005
1616 1818 1817 1e-08 0.005
1617 1618 1818 1e-08 0.005
1618 1819 1818 1e-08 0.005
1618 1619 1820 1e-08 0.005
1618 1820 1819 1e-08 0.005
1619 1620 1820 1e-08 0.005
1620 1821 1820 1e-08 0.005
1620 1621 1822 1e-08 0.005
1620 1822 1821 1e-08 0.005
1621 1622 1822 1e-08 0.005
1622 1823 1822 1e-08 0.005
1622 1623 1824 1e-08 0.005
1622 1824 1823 1e-08 0.005
1623 1624 1824 1e-08 0.005
1624 1825 1824 1e-08 0.005
1624 1625 1826 1e-08 0.005
1624 1826 1825 1e-08 0.005
1625 1626 1826 1e-08 0.005
1626 1827 1826 1e-08 0.005
1626 1627 1828 1e-08 0.005
1626 1828 1827 1e-08 0.005
1627 1628 1828 1e-08 0.005
1628 1829 1828 1e-08 0.005
1628 1629 1830 1e-08 0.005
1628 1830 1829 1e-08 0.005
1629 1630 1830 1e-08 0.005
1630 1831 1830 1e-08 0.005
1630 1631 1832 1e-08 0.005
1630 1832 1831 1e-08 0.005
1631 1632 1832 1e-08 0.005
1632 1833 1832 1e-08 0.005
1632 1633 1834 1e-08 0.005
1632 1834 1833 1e-08 0.005
1633 1634 1834 1e-08 0.005
1634 1835 1834 1e-08 0.005
1634 1635 1836 1e-08 0.005
1634 1836 1835 1e-08 0.005
1635 1636 1836 1e-08 0.005
1636 1837 1836 1e-08 0.005
1636 1637 1838 1e-08 0.005
1636 1838 1837 1e-08 0.005
1637 1638 1838 1e-08 0.005
1638 1839 1838 1e-08 0.005
1638 1639 1840 1e-08 0.005
1638 1840 1839 1e-08 0.005
1639 1640 1840 1e-08 0.005
1640 1841 1840 1e-08 0.005
1640 1641 1842 1e-08 0.005
1640 1842 1841 1e-08 0.005
1641 1642 1842 1e-08 0.005
1642 1843 1842 1e-08 0.005
1642 1643 1844 1e-08 0.005
1642 1844 1843 1e-08 0.005
1643 1644 1844 1e-08 0.005
1644 1845 1844 1e-08 0.005
1644 1645 1846 1e-08 0.005
1644 1846 1845 1e-08 0.005
1645 1646 1846 1e-08 0.005
1646 1847 1846 1e-08 0.005
1646 1647 1848 1e-08 0.005
1646 1848 1847 1e-08 0.005
1647 1648 1848 1e-08 0.005
1648 1849 1848 1e-08 0.005
1648 1649 1850 1e-08 0.005
1648 1850 1849 1e-08 0.005
1649 1650 1850 1e-08 0.005
1650 1851 1850 1e-08 0.005
1650 1651 1852 1e-08 0.005
1650 1852 1851 1e-08 0.005
1651 1652 1852 1e-08 0.005
1652 1853 1852 1e-08 0.005
1652 1653 1854 1e-08 0.005
1652 1854 1853 1e-08 0.005
1653 1654 1854 1e-08 0.005
1654 1855 1854 1e-08 0.005
1654 1655 1856 1e-08 0.005
1654 1856 1855 1e-08 0.005
1655 1656 1856 1e-08 0.005
1656 1857 1856 1e-08 0.005
1656 1657 1858 1e-08 0.005
1656 1858 1857 1e-08 0.005
1657 1658 1858 1e-08 0.005
1658 1859 1858 1e-08 0.005
1658 1659 1860 1e-08 0.005
1658 1860 1859 1e-08 0.005
1659 1660 1860 1e-08 0.005
1660 1861 1860 1e-08 0.005
1660 1661 1862 1e-08 0.005
1660 1862 1861 1e-08 0.005
1661 1662 1862 1e-08 0.005
1662 1863 1862 1e-08 0.005
1662 1663 1864 1e-08 0.005
1662 1864 1863 1e-08 0.005
1663 1664 1864 1e-08 0.005
1664 1865 1864 1e-08 0.005
1664 1665 1866 1e-08 0.005
1664 1866 1865 1e-08 0.005
1665 1666 1866 1e-08 0.005
1666 1867 1866 1e-08 0.005
1666 1667 1868 1e-08 0.005
1666 1868 1867 1e-08 0.005
1667 1668 1868 1e-08 0.005
1668 1869 1868 1e-08 0.005
1668 1669 1870 1e-08 0.005
1668 1870 1869 1e-08 0.005
1669 1670 1870 1e-08 0.005
1670 1871 1870 1e-08 0.005
1670 1671 1872 1e-08 0.005
1670 1872 1871 1e-08 0.005
1671 1672 1872 1e-08 0.005
1672 1873 1872 1e-08 0.005
1672 1673 1874 1e-08 0.005
1672 1874 1873 1e-08 0.005
1673 1674 1874 1e-08 0.005
1674 1875 1874 1e-08 0.005
1674 1675 1876 1e-08 0.005
1674 1876 1875 1e-08 0.005
1675 1676 1876 1e-08 0.005
1676 1877 1876 1e-08 0.005
1676 1677 1878 1e-08 0.005
1676 1878 1877 1e-08 0.005
1677 1678 1878 1e-08 0.005
1678 1879 1878 1e-08 0.005
1678 1679 1880 1e-08 0.005
1678 1880 1879 1e-08 0.005
1679 1680 1880 1e-08 0.005
1680 1881 1880 1e-08 0.005
1680 1681 1882 1e-08 0.005
1680 1882 1881 1e-08 0.005
1681 1682 1882 1e-08 0.005
1682 1883 1882 1e-08 0.005
1682 1683 1884 1e-08 0.005
1682 1884 1883 1e-08 0.005
1683 1684 1884 1e-08 0.005
1684 1885 1884 1e-08 0.005
1684 1685 1886 1e-08 0.005
1684 1886 1885 1e-08 0.005
1685 1686 1886 1e-08 0.005
1686 1887 1886 1e-08 0.005
1686 1687 1888 1e-08 0.005
1686 1888 1887 1e-08 0.005
1687 1688 1888 1e-08 0.005
1688 1889 1888 1e-08 0.005
1688 1689 1890 1e-08 0.005
1688 1890 1889 1e-08 0.005
1689 1690 1890 1e-08 0.005
1690 1891 1890 1e-08 0.005
1690 1691 1892 1e-08 0.005
1690 1892 1891 1e-08 0.005
1691 1692 1892 1e-08 0.005
1692 1893 1892 1e-08 0.005
1692 1693 1894 1e-08 0.005
1692 1894 1893 1e-08 0.005
1693 1694 1894 1e-08 0.005
1694 1895 1894 1e-08 0.005
1694 1695 1896 1e-08 0.005
1694 1896 1895 1e-08 0.005
1695 1696 1896 1e-08 0.005
1696 1897 1896 1e-08 0.005
1696 1697 1898 1e-08 0.005
1696 1898 1897 1e-08 0.005
1697 1698 1898 1e-08 0.005
1698 1899 1898 1e-08 0.005
1698 1699 1900 1e-08 0.005
1698 1900 1899 1e-08 0.005
1699 1700 1900 1e-08 0.005
1700 1901 1900 1e-08 0.005
1700 1701 1902 1e-08 0.005
1700 1902 1901 1e-08 0.005
1701 1702 1902 1e-08 0.005
1702 1903 1902 1e-08 0.005
1702 1703 1904 1e-08 0.005
1702 1904 1903 1e-08 0.005
1703 1704 1904 1e-08 0.005
1704 1905 1904 1e-08 0.005
1704 1705 1906 1e-08 0.005
1704 1906 1905 1e-08 0.005
1705 1706 1906 1e-08 0.005
1706 1907 1906 1e-08 0.005
1706 1707 1908 1e-08 0.005
1706 1908 1907 1e-08 0.005
1707 1708 1908 1e-08 0.005
1708 1909 1908 1e-08 0.005
1708 1709 1910 1e-08 0.001
1708 1910 1909 1e-08 0.001
1709 1710 1910 1e-08 0.001
1710 1911 1910 1e-08 0.001
1710 1711 1912 1e-08 0.001
1710 1912 1911 1e-08 0.001
1711 1712 1912 1e-08 0.001
1712 1913 1912 1e-08 0.001
1712 1713 1914 1e-08 0.001
1712 1914 1913 1e-08 0.001
1713 1714 1914 1e-08 0.001
1714 1915 1914 1e-08 0.001
1714 1715 1916 1e-08 0.001
1714 1916 1915 1e-08 0.001
1715 1716 1916 1e-08 0.001
1716 1917 1916 1e-08 0.001
1716 1717 1918 1e-08 0.001
1716 1918 1917 1e-08 0.001
1717 1718 1918 1e-08 0.001
1718 1919 1918 1e-08 0.001
1718 1719 1920 1e-08 0.001
1718 1920 1919 1e-08 0.001
1719 1720 1920 1e-08 0.001
1720 1921 1920 1e-08 0.001
1720 1721 1922 1e-08 0.001
1720 1922 1921 1e-08 0.001
1721 1722 1922 1e-08 0.001
1722 1923 1922 1e-08 0.001
1722 1723 1924 1e-08 0.001
1722 1924 1923 1e-08 0.001
1723 1724 1924 1e-08 0.001
1724 1925 1924 1e-08 0.001
1724 1725 1926 1e-08 0.001
1724 1926 1925 1e-08 0.001
1725 1726 1926 1e-08 0.001
1726 1927 1926 1e-08 0.001
1726 1727 1928 1e-08 0.001
1726 1928 1927 1e-08 0.001
1727 1728 1928 1e-08 0.001
1728 1929 1928 1e-08 0.001
1728 1729 1930 1e-08 0.001
1728 1930 1929 1e-08 0.001
1729 1730 1930 1e-08 0.001
1730 1931 1930 1e-08 0.001
1730 1731 1932 1e-08 0.001
1730 1932 1931 1e-08 0.001
1731 1732 1932 1e-08 0.001
1732 1933 1932 1e-08 0.001
1732 1733 1934 1e-08 0.001
1732 1934 1933 1e-08 0.001
1733 1734 1934 1e-08 0.001
1734 1935 1934 1e-08 0.001
1734 1735 1936 1e-08 0.001
1734 1936 1935 1e-08 0.001
1735 1736 1936 1e-08 0.001
1736 1937 1936 1e-08 0.001
1736 1737 1938 1e-08 0.001
1736 1938 1937 1e-08 0.001
1737 1738 1938 1e-08 0.001
1738 1939 1938 1e-08 0.001
1738 1739 1940 1e-08 0.001
1738 1940 1939 1e-08 0.001
1739 1740 1940 1e-08 0.001
1740 1941 1940 1e-08 0.001
1740 1741 1942 1e-08 0.001
1740 1942 1941 1e-08 0.001
1741 1742 1942 1e-08 0.001
1742 1943 1942 1e-08 0.001
1742 1743 1944 1e-08 0.001
1742 1944 1943 1e-08 0.001
1743 1744 1944 1e-08 0.001
1744 1945 1944 1e-08 0.001
1744 1745 1946 1e-08 0.001
1744 1946 1945 1e-08 0.001
1745 1746 1946 1e-08 0.001
1746 1947 1946 1e-08 0.001
1746 1747 1948 1e-08 0.001
1746 1948 1947 1e-08 0.001
1747 1748 1948 1e-08 0.001
1748 1949 1948 1e-08 0.001
1748 1749 1950 1e-08 0.001
1748 1950 1949 1e-08 0.001
1749 1750 1950 1e-08 0.001
1750 1951 1950 1e-08 0.001
1750 1751 1952 1e-08 0.001
1750 1952 1951 1e-08 0.001
1751 1752 1952 1e-08 0.001
1752 1953 1952 1e-08 0.001
1752 1753 1954 1e-08 0.001
1752 1954 1953 1e-08 0.001
1753 1754 1954 1e-08 0.001
1754 1955 1954 1e-08 0.001
1754 1755 1956 1e-08 0.001
1754 1956 1955 1e-08 0.001
1755 1756 1956 1e-08 0.001
1756 1957 1956 1e-08 0.001
1756 1757 1958 1e-08 0.001
1756 1958 1957 1e-08 0.001
1757 1758 1958 1e-08 0.001
1758 1959 1958 1e-08 0.001
1758 1759 1960 1e-08 0.001
1758 1960 1959 1e-08 0.001
1759 1760 1960 1e-08 0.001
1760 1961 1960 1e-08 0.001
1760 1761 1962 1e-08 0.001
1760 1962 1961 1e-08 0.001
1761 1762 1962 1e-08 0.001
1762 1963 1962 1e-08 0.001
1762 1763 1964 1e-08 0.001
1762 1964 1963 1e-08 0.001
1763 1764 1964 1e-08 0.001
1764 1965 1964 1e-08 0.001
1764 1765 1966 1e-08 0.001
1764 1966 1965 1e-08 0.001
1765 1766 1966 1e-08 0.001
1766 1967 1966 1e-08 0.001
1766 1767 1968 1e-08 0.001
1766 1968 1967 1e-08 0.001
1767 1768 1968 1e-08 0.001
1768 1969 1968 1e-08 0.001
1768 1769 1970 1e-08 0.001
1768 1970 1969 1e-08 0.001
1769 1770 1970 1e-08 0.001
1770 1971 1970 1e-08 0.001
1770 1771 1972 1e-08 0.001
1770 1972 1971 1e-08 0.001
1771 1772 1972 1e-08 0.001
1772 1973 1972 1e-08 0.001
1772 1773 1974 1e-08 0.001
1772 1974 1973 1e-08 0.001
1773 1774 1974 1e-08 0.001
1774 1975 1974 1e-08 0.001
1774 1775 1976 1e-08 0.001
1774 1976 1975 1e-08 0.001
1775 1776 1976 1e-08 0.001
1776 1977 1976 1e-08 0.001
1776 1777 1978 1e-08 0.001
1776 1978 1977 1e-08 0.001
1777 1778 1978 1e-08 0.001
1778 1979 1978 1e-08 0.001
1778 1779 1980 1e-08 0.001
1778 1980 1979 1e-08 0.001
1779 1780 1980 1e-08 0.001
1780 1981 1980 1e-08 0.001
1780 1781 1982 1e-08 0.001
1780 1982 1981 1e-08 0.001
1781 1782 1982 1e-08 0.001
1782 1983 1982 1e-08 0.001
1782 1783 1984 1e-08 0.001
1782 1984 1983 1e-08 0.001
1783 1784 1984 1e-08 0.001
1784 1985 1984 1e-08 0.001
1784 1785 1986 1e-08 0.001
1784 1986 1985 1e-08 0.001
1785 1786 1986 1e-08 0.001
1786 1987 1986 1e-08 0.001
1786 1787 1988 1e-08 0.001
1786 1988 1987 1e-08 0.001
1787 1788 1988 1e-08 0.001
1788 1989 1988 1e-08 0.001
1788 1789 1990 1e-08 0.001
1788 1990 1989 1e-08 0.001
1789 1790 1990 1e-08 0.001
1790 1991 1990 1e-08 0.001
1790 1791 1992 1e-08 0.001
1790 1992 1991 1e-08 0.001
1791 1792 1992 1e-08 0.001
1792 1993 1992 1e-08 0.001
1792 1793 1994 1e-08 0.001
1792 1994 1993 1e-08 0.001
1793 1794 1994 1e-08 0.001
1794 1995 1994 1e-08 0.001
1794 1795 1996 1e-08 0.001
1794 1996 1995 1e-08 0.001
1795 1796 1996 1e-08 0.001
1796 1997 1996 1e-08 0.001
1796 1797 1998 1e-08 0.001
1796 1998 1997 1e-08 0.001
1797 1798 1998 1e-08 0.001
1798 1999 1998 1e-08 0.001
1798 1799 2000 1e-08 0.001
1798 2000 1999 1e-08 0.001
1799 1800 2000 1e-08 0.001
1800 2001 2000 1e-08 0.001
1800 1801 2002 1e-08 0.001
1800 2002 2001 1e-08 0.001
1801 1802 2002 1e-08 0.001
1802 2003 2002 1e-08 0.001
1802 1803 2004 1e-08 0.001
1802 2004 2003 1e-08 0.001
1803 1804 2004 1e-08 0.001
1804 2005 2004 1e-08 0.001
1804 1805 2006 1e-08 0.001
1804 2006 2005 1e-08 0.001
1805 1806 2006 1e-08 0.001
1806 2007 2006 1e-08 0.001
1806 1807 2008 1e-08 0.001
1806 2008 2007 1e-08 0.001
1807 1808 2008 1e-08 0.001
1808 2009 2008 1e-08 0.001
1809 1810 2010 1e-08 0.005
1810 2011 2010 1e-08 0.005
1810 1811 2012 1e-08 0.005
1810 2012 2011 1e-08 0.005
1811 1812 2012 1e-08 0.005
1812 2013 2012 1e-08 0.005
1812 1813 2014 1e-08 0.005
1812 2014 2013 1e-08 0.005
1813 1814 2014 1e-08 0.005
1814 2015 2014 1e-08 0.005
1814 1815 2016 1e-08 0.005
1814 2016 2015 1e-08 0.005
1815 1816 2016 1e-08 0.005
1816 2017 2016 1e-08 0.005
1816 1817 2018 1e-08 0.005
1816 2018 2017 1e-08 0.005
1817 1818 2018 1e-08 0.005
1818 2019 2018 1e-08 0.005
1818 1819 2020 1e-08 0.005
1818 2020 2019 1e-08 0.005
1819 1820 2020 1e-08 0.005
1820 2021 2020 1e-08 0.005
1820 1821 2022 1e-08 0.005
1820 2022 2021 1e-08 0.005
1821 1822 2022 1e-08 0.005
1822 2023 2022 1e-08 0.005
1822 1823 2024 1e-08 0.005
1822 2024 2023 1e-08 0.005
1823 1824 2024 1e-08 0.005
1824 2025 2024 1e-08 0.005
1824 1825 2026 1e-08 0.005
1824 2026 2025 1e-08 0.005
1825 1826 2026 1e-08 0.005
1826 2027 2026 1e-08 0.005
1826 1827 2028 1e-08 0.005
1826 2028 2027 1e-08 0.005
1827 1828 2028 1e-08 0.005
1828 2029 2028 1e-08 0.005
1828 1829 2030 1e-08 0.005
1828 2030 2029 1e-08 0.005
1829 1830 2030 1e-08 0.005
1830 2031 2030 1e-08 0.005
1830 1831 2032 1e-08 0.005
1830 2032 2031 1e-08 0.005
1831 1832 2032 1e-08 0.005
1832 2033 2032 1e-08 0.005
1832 1833 2034 1e-08 0.005
1832 2034 2033 1e-08 0.005
1833 1834 2034 1e-08 0.005
1834 2035 2034 1e-08 0.005
1834 1835 2036 1e-08 0.005
1834 2036 2035 1e-08 0.005
1835 1836 2036 1e-08 0.005
1836 2037 2036 1e-08 0.005
1836 1837 2038 1e-08 0.005
1836 2038 2037 1e-08 0.005
1837 1838 2038 1e-08 0.005
1838 2039 2038 1e-08 0.005
1838 1839 2040 1e-08 0.005
1838 2040 2039 1e-08 0.005
1839 1840 2040 1e-08 0.005
1840 2041 2040 1e-08 0.005
1840 1841 2042 1e-08 0.005
1840 2042 2041 1e-08 0.005
1841 1842 2042 1e-08 0.005
1842 2043 2042 1e-08 0.005
1842 1843 2044 1e-08 0.005
1842 2044 2043 1e-08 0.005
1843 1844 2044 1e-08 0.005
1844 2045 2044 1e-08 0.005
1844 1845 2046 1e-08 0.005
1844 2046 2045 1e-08 0.005
1845 1846 2046 1e-08 0.005
1846 2047 2046 1e-08 0.005
1846 1847 2048 1e-08 0.005
1846 2048 2047 1e-08 0.005
1847 1848 2048 1e-08 0.005
1848 2049 2048 1e-08 0.005
1848 1849 2050 1e-08 0.005
1848 2050 2049 1e-08 0.005
1849 1850 2050 1e-08 0.005
1850 2051 2050 1e-08 0.005
1850 1851 2052 1e-08 0.005
1850 2052 2051 1e-08 0.005
1851 1852 2052 1e-08 0.005
1852 2053 2052 1e-08 0.005
1852 1853 2054 1e-08 0.005
1852 2054 2053 1e-08 0.005
1853 1854 2054 1e-08 0.005
1854 2055 2054 1e-08 0.005
1854 1855 2056 1e-08 0.005
1854 2056 2055 1e-08 0.005
1855 1856 2056 1e-08 0.005
1856 2057 2056 1e-08 0.005
1856 1857 2058 1e-08 0.005
1856 2058 2057 1e-08 0.005
1857 1858 2058 1e-08 0.005
1858 2059 2058 1e-08 0.005
1858 1859 2060 1e-08 0.005
1858 2060 2059 1e-08 0.005
1859 1860 2060 1e-08 0.005
1860 2061 2060 1e-08 0.005
1860 1861 2062 1e-08 0.005
1860 2062 2061 1e-08 0.005
1861 1862 2062 1e-08 0.005
1862 2063 2062 1e-08 0.005
1862 1863 2064 1e-08 0.005
1862 2064 2063 1e-08 0.005
1863 1864 2064 1e-08 0.005
1864 2065 2064 1e-08 0.005
1864 1865 2066 1e-08 0.005
1864 2066 2065 1e-08 0.005
1865 1866 2066 1e-08 0.005
1866 2067 2066 1e-08 0.005
1866 1867 2068 1e-08 0.005
1866 2068 2067 1e-08 0.005
1867 1868 2068 1e-08 0.005
1868 2069 2068 1e-08 0.005
1868 1869 2070 1e-08 0.005
1868 2070 2069 1e-08 0.005
1869 1870 2070 1e-08 0.005
1870 2071 2070 1e-08 0.005
1870 1871 2072 1e-08 0.005
1870 2072 2071 1e-08 0.005
1871 1872 2072 1e-08 0.005
1872 2073 2072 1e-08 0.005
1872 1873 2074 1e-08 0.005
1872 2074 2073 1e-08 0.005
1873 1874 2074 1e-08 0.005
1874 2075 2074 1e-08 0.005
1874 1875 2076 1e-08 0.005
1874 2076 2075 1e-08 0.005
1875 1876 2076 1e-08 0.005
1876 2077 2076 1e-08 0.005
1876 1877 2078 1e-08 0.005
1876 2078 2077 1e-08 0.005
1877 1878 2078 1e-08 0.005
1878 2079 2078 1e-08 0.005
1878 1879 2080 1e-08 0.005
1878 2080 2079 1e-08 0.005
1879 1880 2080 1e-08 0.005
1880 2081 2080 1e-08 0.005
1880 1881 2082 1e-08 0.005
1880 2082 2081 1e-08 0.005
1881 1882 2082 1e-08 0.005
1882 2083 2082 1e-08 0.005
1882 1883 2084 1e-08 0.005
1882 2084 2083 1e-08 0.005
1883 1884 2084 1e-08 0.005
1884 2085 2084 1e-08 0.005
1884 1885 2086 1e-08 0.005
1884 2086 2085 1e-08 0.005
1885 1886 2086 1e-08 0.005
1886 2087 2086 1e-08 0.005
1886 1887 2088 1e-08 0.005
1886 2088 2087 1e-08 0.005
1887 1888 2088 1e-08 0.005
1888 2089 2088 1e-08 0.005
1888 1889 2090 1e-08 0.005
1888 2090 2089 1e-08 0.005
1889 1890 2090 1e-08 0.005
1890 2091 2090 1e-08 0.005
1890 1891 2092 1e-08 0.005
1890 2092 2091 1e-08 0.005
1891 1892 2092 1e-08 0.005
1892 2093 2092 1e-08 0.005
1892 1893 2094 1e-08 0.005
1892 2094 2093 1e-08 0.005
1893 1894 2094 1e-08 0.005
1894 2095 2094 1e-08 0.005
1894 1895 2096 1e-08 0.005
1894 2096 2095 1e-08 0.005
1895 1896 2096 1e-08 0.005
1896 2097 2096 1e-08 0.005
1896 1897 2098 1e-08 0.005
1896 2098 2097 1e-08 0.005
1897 1898 2098 1e-08 0.005
1898 2099 2098 1e-08 0.005
1898 1899 2100 1e-08 0.005
1898 2100 2099 1e-08 0.005
1899 1900 2100 1e-08 0.005
1900 2101 2100 1e-08 0.005
1900 1901 2102 1e-08 0.005
1900 2102 2101 1e-08 0.005
1901 1902 2102 1e-08 0.005
1902 2103 2102 1e-08 0.005
1902 1903 2104 1e-08 0.005
1902 2104 2103 1e-08 0.005
1903 1904 2104 1e-08 0.005
1904 2105 2104 1e-08 0.005
1904 1905 2106 1e-08 0.005
1904 2106 2105 1e-08 0.005
1905 1906 2106 1e-08 0.005
1906 2107 2106 1e-08 0.005
1906 1907 2108 1e-08 0.005
1906 2108 2107 1e-08 0.005
1907 1908 2108 1e-08 0.005
1908 2109 2108 1e-08 0.005
1908 1909 2110 1e-08 0.005
1908 2110 2109 1e-08 0.005
1909 1910 2110 1e-08 0.001
1910 2111 2110 1e-08 0.001
1910 1911 2112 1e-08 0.001
1910 2112 2111 1e-08 0.001
1911 1912 2112 1e-08 0.001
1912 2113 2112 1e-08 0.001
1912 1913 2114 1e-08 0.001
1912 2114 2113 1e-08 0.001
1913 1914 2114 1e-08 0.001
1914 2115 2114 1e-08 0.001
1914 1915 2116 1e-08 0.001
1914 2116 2115 1e-08 0.001
1915 1916 2116 1e-08 0.001
1916 2117 2116 1e-08 0.001
1916 1917 2118 1e-08 0.001
1916 2118 2117 1e-08 0.001
1917 1918 2118 1e-08 0.001
1918 2119 2118 1e-08 0.001
1918 1919 2120 1e-08 0.001
1918 2120 2119 1e-08 0.001
1919 1920 2120 1e-08 0.001
1920 2121 2120 1e-08 0.001
1920 1921 2122 1e-08 0.001
1920 2122 2121 1e-08 0.001
1921 1922 2122 1e-08 0.001
1922 2123 2122 1e-08 0.001
1922 1923 2124 1e-08 0.001
1922 2124 2123 1e-08 0.001
1923 1924 2124 1e-08 0.001
1924 2125 2124 1e-08 0.001
1924 1925 2126 1e-08 0.001
1924 2126 2125 1e-08 0.001
1925 1926 2126 1e-08 0.001
1926 2127 2126 1e-08 0.001
1926 1927 2128 1e-08 0.001
1926 2128 2127 1e-08 0.001
1927 1928 2128 1e-08 0.001
1928 2129 2128 1e-08 0.001
1928 1929 2130 1e-08 0.001
1928 2130 2129 1e-08 0.001
1929 1930 2130 1e-08 0.001
1930 2131 2130 1e-08 0.001
1930 1931 2132 1e-08 0.001
1930 2132 2131 1e-08 0.001
1931 1932 2132 1e-08 0.001
1932 2133 2132 1e-08 0.001
1932 1933 2134 1e-08 0.001
1932 2134 2133 1e-08 0.001
1933 1934 2134 1e-08 0.001
1934 2135 2134 1e-08 0.001
1934 1935 2136 1e-08 0.001
1934 2136 2135 1e-08 0.001
1935 1936 2136 1e-08 0.001
1936 2137 2136 1e-08 0.001
1936 1937 2138 1e-08 0.001
1936 2138 2137 1e-08 0.001
1937 1938 2138 1e-08 0.001
1938 2139 2138 1e-08 0.001
1938 1939 2140 1e-08 0.001
1938 2140 2139 1e-08 0.001
1939 1940 2140 1e-08 0.001
1940 2141 2140 1e-08 0.001
1940 1941 2142 1e-08 0.001
1940 2142 2141 1e-08 0.001
1941 1942 2142 1e-08 0.001
1942 2143 2142 1e-08 0.001
1942 1943 2144 1e-08 0.001
1942 2144 2143 1e-08 0.001
1943 1944 2144 1e-08 0.001
1944 2145 2144 1e-08 0.001
1944 1945 2146 1e-08 0.001
1944 2146 2145 1e-08 0.001
1945 1946 2146 1e-08 0.001
1946 2147 2146 1e-08 0.001
1946 1947 2148 1e-08 0.001
1946 2148 2147 1e-08 0.001
1947 1948 2148 1e-08 0.001
1948 2149 2148 1e-08 0.001
1948 1949 2150 1e-08 0.001
1948 2150 2149 1e-08 0.001
1949 1950 2150 1e-08 0.001
1950 2151 2150 1e-08 0.001
1950 1951 2152 1e-08 0.001
1950 2152 2151 1e-08 0.001
1951 1952 2152 1e-08 0.001
1952 2153 2152 1e-08 0.001
1952 1953 2154 1e-08 0.001
1952 2154 2153 1e-08 0.001
1953 1954 2154 1e-08 0.001
1954 2155 2154 1e-08 0.001
1954 1955 2156 1e-08 0.001
1954 2156 2155 1e-08 0.001
1955 1956 2156 1e-08 0.001
1956 2157 2156 1e-08 0.001
1956 1957 2158 1e-08 0.001
1956 2158 2157 1e-08 0.001
1957 1958 2158 1e-08 0.001
1958 2159 2158 1e-08 0.001
1958 1959 2160 1e-08 0.001
1958 2160 2159 1e-08 0.001
1959 1960 2160 1e-08 0.001
1960 2161 2160 1e-08 0.001
1960 1961 2162 1e-08 0.001
1960 2162 2161 1e-08 0.001
1961 1962 2162 1e-08 0.001
1962 2163 2162 1e-08 0.001
1962 1963 2164 1e-08 0.001
1962 2164 2163 1e-08 0.001
1963 1964 2164 1e-08 0.001
1964 2165 2164 1e-08 0.001
1964 1965 2166 1e-08 0.001
1964 2166 2165 1e-08 0.001
1965 1966 2166 1e-08 0.001
1966 2167 2166 1e-08 0.001
1966 1967 2168 1e-08 0.001
1966 2168 2167 1e-08 0.001
1967 1968 2168 1e-08 0.001
1968 2169 2168 1e-08 0.001
1968 1969 2170 1e-08 0.001
1968 2170 2169 1e-08 0.001
1969 1970 2170 1e-08 0.001
1970 2171 2170 1e-08 0.001
1970 1971 2172 1e-08 0.001
1970 2172 2171 1e-08 0.001
1971 1972 2172 1e-08 0.001
1972 2173 2172 1e-08 0.001
1972 1973 2174 1e-08 0.001
1972 2174 2173 1e-08 0.001
1973 1974 2174 1e-08 0.001
1974 2175 2174 1e-08 0.001
1974 1975 2176 1e-08 0.001
1974 2176 2175 1e-08 0.001
1975 1976 2176 1e-08 0.001
1976 2177 2176 1e-08 0.001
1976 1977 2178 1e-08 0.001
1976 2178 2177 1e-08 0.001
1977 1978 2178 1e-08 0.001
1978 2179 2178 1e-08 0.001
1978 1979 2180 1e-08 0.001
1978 2180 2179 1e-08 0.001
1979 1980 2180 1e-08 0.001
1980 2181 2180 1e-08 0.001
1980 1981 2182 1e-08 0.001
1980 2182 2181 1e-08 0.001
1981 1982 2182 1e-08 0.001
1982 2183 2182 1e-08 0.001
1982 1983 2184 1e-08 0.001
1982 2184 2183 1e-08 0.001
1983 1984 2184 1e-08 0.001
1984 2185 2184 1e-08 0.001
1984 1985 2186 1e-08 0.001
1984 2186 2185 1e-08 0.001
1985 1986 2186 1e-08 0.001
1986 2187 2186 1e-08 0.001
1986 1987 2188 1e-08 0.001
1986 2188 2187 1e-08 0.001
1987 1988 2188 1e-08 0.001
1988 2189 2188 1e-08 0.001
1988 1989 2190 1e-08 0.001
1988 2190 2189 1e-08 0.001
1989 1990 2190 1e-08 0.001
1990 2191 2190 1e-08 0.001
1990 1991 2192 1e-08 0.001
1990 2192 2191 1e-08 0.001
1991 1992 2192 1e-08 0.001
1992 2193 2192 1e-08 0.001
1992 1993 2194 1e-08 0.001
1992 2194 2193 1e-08 0.001
1993 1994 2194 1e-08 0.001
1994 2195 2194 1e-08 0.001
1994 1995 2196 1e-08 0.001
1994 2196 2195 1e-08 0.001
1995 1996 2196 1e-08 0.001
1996 2197 2196 1e-08 0.001
1996 1997 2198 1e-08 0.001
1996 2198 2197 1e-08 0.001
1997 1998 2198 1e-08 0.001
1998 2199 2198 1e-08 0.001
1998 1999 2200 1e-08 0.001
1998 2200 2199 1e-08 0.001
1999 2000 2200 1e-08 0.001
2000 2201 2200 1e-08 0.001
2000 2001 2202 1e-08 0.001
2000 2202 2201 1e-08 0.001
2001 2002 2202 1e-08 0.001
2002 2203 2202 1e-08 0.001
2002 2003 2204 1e-08 0.001
2002 2204 2203 1e-08 0.001
2003 2004 2204 1e-08 0.001
2004 2205 2204 1e-08 0.001
2004 2005 2206 1e-08 0.001
2004 2206 2205 1e-08 0.001
2005 2006 2206 1e-08 0.001
2006 2207 2206 1e-08 0.001
2006 2007 2208 1e-08 0.001
2006 2208 2207 1e-08 0.001
2007 2008 2208 1e-08 0.001
2008 2209 2208 1e-08 0.001
2008 2009 2210 1e-08 0.001
2008 2210 2209 1e-08 0.001
2010 2011 2212 1e-08 0.005
2010 2212 2211 1e-08 0.005
2011 2012 2212 1e-08 0.005
2012 2213 2212 1e-08 0.005
2012 2013 2214 1e-08 0.005
2012 2214 2213 1e-08 0.005
2013 2014 2214 1e-08 0.005
2014 2215 2214 1e-08 0.005
2014 2015 2216 1e-08 0.005
2014 2216 2215 1e-08 0.005
2015 2016 2216 1e-08 0.005
2016 2217 2216 1e-08 0.005
2016 2017 2218 1e-08 0.005
2016 2218 2217 1e-08 0.005
2017 2018 2218 1e-08 0.005
2018 2219 2218 1e-08 0.005
2018 2019 2220 1e-08 0.005
2018 2220 2219 1e-08 0.005
2019 2020 2220 1e-08 0.005
2020 2221 2220 1e-08 0.005
2020 2021 2222 1e-08 0.005
2020 2222 2221 1e-08 0.005
2021 2022 2222 1e-08 0.005
2022 2223 2222 1e-08 0.005
2022 2023 2224 1e-08 0.005
2022 2224 2223 1e-08 0.005
2023 2024 2224 1e-08 0.005
2024 2225 2224 1e-08 0.005
2024 2025 2226 1e-08 0.005
2024 2226 2225 1e-08 0.005
2025 2026 2226 1e-08 0.005
2026 2227 2226 1e-08 0.005
2026 2027 2228 1e-08 0.005
2026 2228 2227 1e-08 0.005
2027 2028 2228 1e-08 0.005
2028 2229 2228 1e-08 0.005
2028 2029 2230 1e-08 0.005
2028 2230 2229 1e-08 0.005
2029 2030 2230 1e-08 0.005
2030 2231 2230 1e-08 0.005
2030 2031 2232 1e-08 0.005
2030 2232 2231 1e-08 0.005
2031 2032 2232 1e-08 0.005
2032 2233 2232 1e-08 0.005
2032 2033 2234 1e-08 0.005
2032 2234 2233 1e-08 0.005
2033 2034 2234 1e-08 0.005
2034 2235 2234 1e-08 0.005
2034 2035 2236 1e-08 0.005
2034 2236 2235 1e-08 0.005
2035 2036 2236 1e-08 0.005
2036 2237 2236 1e-08 0.005
2036 2037 2238 1e-08 0.005
2036 2238 2237 1e-08 0.005
2037 2038 2238 1e-08 0.005
2038 2239 2238 1e-08 0.005
2038 2039 2240 1e-08 0.005
2038 2240 2239 1e-08 0.005
2039 2040 2240 1e-08 0.005
2040 2241 2240 1e-08 0.005
2040 2041 2242 1e-08 0.005
2040 2242 2241 1e-08 0.005
2041 2042 2242 1e-08 0.005
2042 2243 2242 1e-08 0.005
2042 2043 2244 1e-08 0.005
2042 2244 2243 1e-08 0.005
2043 2044 2244 1e-08 0.005
2044 2245 2244 1e-08 0.005
2044 2045 2246 1e-08 0.005
2044 2246 2245 1e-08 0.005
2045 2046 2246 1e-08 0.005
2046 2247 2246 1e-08 0.005
2046 2047 2248 1e-08 0.005
2046 2248 2247 1e-08 0.005
2047 2048 2248 1e-08 0.005
2048 2249 2248 1e-08 0.005
2048 2049 2250 1e-08 0.005
2048 2250 2249 1e-08 0.005
2049 2050 2250 1e-08 0.005
2050 2251 2250 1e-08 0.005
2050 2051 2252 1e-08 0.005
2050 2252 2251 1e-08 0.005
2051 2052 2252 1e-08 0.005
2052 2253 2252 1e-08 0.005
2052 2053 2254 1e-08 0.005
2052 2254 2253 1e-08 0.005
2053 2054 2254 1e-08 0.005
2054 2255 2254 1e-08 0.005
2054 2055 2256 1e-08 0.005
2054 2256 2255 1e-08 0.005
2055 2056 2256 1e-08 0.005
2056 2257 2256 1e-08 0.005
2056 2057 2258 1e-08 0.005
2056 2258 2257 1e-08 0.005
2057 2058 2258 1e-08 0.005
2058 2259 2258 1e-08 0.005
2058 2059 2260 1e-08 0.005
2058 2260 2259 1e-08 0.005
2059 2060 2260 1e-08 0.005
2060 2261 2260 1e-08 0.005
2060 2061 2262 1e-08 0.005
2060 2262 2261 1e-08 0.005
2061 2062 2262 1e-08 0.005
2062 2263 2262 1e-08 0.005
2062 2063 2264 1e-08 0.005
2062 2264 2263 1e-08 0.005
2063 2064 2264 1e-08 0.005
2064 2265 2264 1e-08 0.005
2064 2065 2266 1e-08 0.005
2064 2266 2265 1e-08 0.005
2065 2066 2266 1e-08 0.005
2066 2267 2266 1e-08 0.005
2066 2067 2268 1e-08 0.005
2066 2268 2267 1e-08 0.005
2067 2068 2268 1e-08 0.005
2068 2269 2268 1e-08 0.005
2068 2069 2270 1e-08 0.005
2068 2270 2269 1e-08 0.005
2069 2070 2270 1e-08 0.005
2070 2271 2270 1e-08 0.005
2070 2071 2272 1e-08 0.005
2070 2272 2271 1e-08 0.005
2071 2072 2272 1e-08 0.005
2072 2273 2272 1e-08 0.005
2072 2073 2274 1e-08 0.005
2072 2274 2273 1e-08 0.005
2073 2074 2274 1e-08 0.005
2074 2275 2274 1e-08 0.005
2074 2075 2276 1e-08 0.005
2074 2276 2275 1e-08 0.005
2075 2076 2276 1e-08 0.005
2076 2277 2276 1e-08 0.005
2076 2077 2278 1e-08 0.005
2076 2278 2277 1e-08 0.005
2077 2078 2278 1e-08 0.005
2078 2279 2278 1e-08 0.005
2078 2079 2280 1e-08 0.005
2078 2280 2279 1e-08 0.005
2079 2080 2280 1e-08 0.005
2080 2281 2280 1e-08 0.005
2080 2081 2282 1e-08 0.005
2080 2282 2281 1e-08 0.005
2081 2082 2282 1e-08 0.005
2082 2283 2282 1e-08 0.005
2082 2083 2284 1e-08 0.005
2082 2284 2283 1e-08 0.005
2083 2084 2284 1e-08 0.005
2084 2285 2284 1e-08 0.005
2084 2085 2286 1e-08 0.005
2084 2286 2285 1e-08 0.005
2085 2086 2286 1e-08 0.005
2086 2287 2286 1e-08 0.005
2086 2087 2288 1e-08 0.005
2086 2288 2287 1e-08 0.005
2087 2088 2288 1e-08 0.005
2088 2289 2288 1e-08 0.005
2088 2089 2290 1e-08 0.005
2088 2290 2289 1e-08 0.005
2089 2090 2290 1e-08 0.005
2090 2291 2290 1e-08 0.005
2090 2091 2292 1e-08 0.005
2090 2292 2291 1e-08 0.005
2091 2092 2292 1e-08 0.005
2092 2293 2292 1e-08 0.005
2092 2093 2294 1e-08 0.005
2092 2294 2293 1e-08 0.005
2093 2094 2294 1e-08 0.005
2094 2295 2294 1e-08 0.005
2094 2095 2296 1e-08 0.005
2094 2296 2295 1e-08 0.005
2095 2096 2296 1e-08 0.005
2096 2297 2296 1e-08 0.005
2096 2097 2298 1e-08 0.005
2096 2298 2297 1e-08 0.005
2097 2098 2298 1e-08 0.005
2098 2299 2298 1e-08 0.005
2098 2099 2300 1e-08 0.005
2098 2300 2299 1e-08 0.005
2099 2100 2300 1e-08 0.005
2100 2301 2300 1e-08 0.005
2100 2101 2302 1e-08 0.005
2100 2302 2301 1e-08 0.005
2101 2102 2302 1e-08 0.005
2102 2303 2302 1e-08 0.005
2102 2103 2304 1e-08 0.005
2102 2304 2303 1e-08 0.005
2103 2104 2304 1e-08 0.005
2104 2305 2304 1e-08 0.005
2104 2105 2306 1e-08 0.005
2104 2306 2305 1e-08 0.005
2105 2106 2306 1e-08 0.005
2106 2307 2306 1e-08 0.005
2106 2107 2308 1e-08 0.005
2106 2308 2307 1e-08 0.005
2107 2108 2308 1e-08 0.005
2108 2309 2308 1e-08 0.005
2108 2109 2310 1e-08 0.005
2108 2310 2309 1e-08 0.005
2109 2110 2310 1e-08 0.005
2110 2311 2310 1e-08 0.005
2110 2111 2312 1e-08 0.001
2110 2312 2311 1e-08 0.001
2111 2112 2312 1e-08 0.001
2112 2313 2312 1e-08 0.001
2112 2113 2314 1e-08 0.001
2112 2314 2313 1e-08 0.001
2113 2114 2314 1e-08 0.001
2114 2315 2314 1e-08 0.001
2114 2115 2316 1e-08 0.001
2114 2316 2315 1e-08 0.001
2115 2116 2316 1e-08 0.001
2116 2317 2316 1e-08 0.001
2116 2117 2318 1e-08 0.001
2116 2318 2317 1e-08 0.001
2117 2118 2318 1e-08 0.001
2118 2319 2318 1e-08 0.001
2118 2119 2320 1e-08 0.001
2118 2320 2319 1e-08 0.001
2119 2120 2320 1e-08 0.001
2120 2321 2320 1e-08 0.001
2120 2121 2322 1e-08 0.001
2120 2322 2321 1e-08 0.001
2121 2122 2322 1e-08 0.001
2122 2323 2322 1e-08 0.001
2122 2123 2324 1e-08 0.001
2122 2324 2323 1e-08 0.001
2123 2124 2324 1e-08 0.001
2124 2325 2324 1e-08 0.001
2124 2125 2326 1e-08 0.001
2124 2326 2325 1e-08 0.001
2125 2126 2326 1e-08 0.001
2126 2327 2326 1e-08 0.001
2126 2127 2328 1e-08 0.001
2126 2328 2327 1e-08 0.001
2127 2128 2328 1e-08 0.001
2128 2329 2328 1e-08 0.001
2128 2129 2330 1e-08 0.001
2128 2330 2329 1e-08 0.001
2129 2130 2330 1e-08 0.001
2130 2331 2330 1e-08 0.001
2130 2131 2332 1e-08 0.001
2130 2332 2331 1e-08 0.001
2131 2132 2332 1e-08 0.001
2132 2333 2332 1e-08 0.001
2132 2133 2334 1e-08 0.001
2132 2334 2333 1e-08 0.001
2133 2134 2334 1e-08 0.001
2134 2335 2334 1e-08 0.001
2134 2135 2336 1e-08 0.001
2134 2336 2335 1e-08 0.001
2135 2136 2336 1e-08 0.001
2136 2337 2336 1e-08 0.001
2136 2137 2338 1e-08 0.001
2136 2338 2337 1e-08 0.001
2137 2138 2338 1e-08 0.001
2138 2339 2338 1e-08 0.001
2138 2139 2340 1e-08 0.001
2138 2340 2339 1e-08 0.001
2139 2140 2340 1e-08 0.001
2140 2341 2340 1e-08 0.001
2140 2141 2342 1e-08 0.001
2140 2342 2341 1e-08 0.001
2141 2142 2342 1e-08 0.001
2142 2343 2342 1e-08 0.001
2142 2143 2344 1e-08 0.001
2142 2344 2343 1e-08 0.001
2143 2144 2344 1e-08 0.001
2144 2345 2344 1e-08 0.001
2144 2145 2346 1e-08 0.001
2144 2346 2345 1e-08 0.001
2145 2146 2346 1e-08 0.001
2146 2347 2346 1e-08 0.001
2146 2147 2348 1e-08 0.001
2146 2348 2347 1e-08 0.001
2147 2148 2348 1e-08 0.001
2148 2349 2348 1e-08 0.001
2148 2149 2350 1e-08 0.001
2148 2350 2349 1e-08 0.001
2149 2150 2350 1e-08 0.001
2150 2351 2350 1e-08 0.001
2150 2151 2352 1e-08 0.001
2150 2352 2351 1e-08 0.001
2151 2152 2352 1e-08 0.001
2152 2353 2352 1e-08 0.001
2152 2153 2354 1e-08 0.001
2152 2354 2353 1e-08 0.001
2153 2154 2354 1e-08 0.001
2154 2355 2354 1e-08 0.001
2154 2155 2356 1e-08 0.001
2154 2356 2355 1e-08 0.001
2155 2156 2356 1e-08 0.001
2156 2357 2356 1e-08 0.001
2156 2157 2358 1e-08 0.001
2156 2358 2357 1e-08 0.001
2157 2158 2358 1e-08 0.001
2158 2359 2358 1e-08 0.001
2158 2159 2360 1e-08 0.001
2158 2360 2359 1e-08 0.001
2159 2160 2360 1e-08 0.001
2160 2361 2360 1e-08 0.001
2160 2161 2362 1e-08 0.001
2160 2362 2361 1e-08 0.001
2161 2162 2362 1e-08 0.001
2162 2363 2362 1e-08 0.001
2162 2163 2364 1e-08 0.001
2162 2364 2363 1e-08 0.001
2163 2164 2364 1e-08 0.001
2164 2365 2364 1e-08 0.001
2164 2165 2366 1e-08 0.001
2164 2366 2365 1e-08 0.001
2165 2166 2366 1e-08 0.001
2166 2367 2366 1e-08 0.001
2166 2167 2368 1e-08 0.001
2166 2368 2367 1e-08 0.001
2167 2168 2368 1e-08 0.001
2168 2369 2368 1e-08 0.001
2168 2169 2370 1e-08 0.001
2168 2370 2369 1e-08 0.001
2169 2170 2370 1e-08 0.001
2170 2371 2370 1e-08 0.001
2170 2171 2372 1e-08 0.001
2170 2372 2371 1e-08 0.001
2171 2172 2372 1e-08 0.001
2172 2373 2372 1e-08 0.001
2172 2173 2374 1e-08 0.001
2172 2374 2373 1e-08 0.001
2173 2174 2374 1e-08 0.001
2174 2375 2374 1e-08 0.001
2174 2175 2376 1e-08 0.001
2174 2376 2375 1e-08 0.001
2175 2176 2376 1e-08 0.001
2176 2377 2376 1e-08 0.001
2176 2177 2378 1e-08 0.001
2176 2378 2377 1e-08 0.001
2177 2178 2378 1e-08 0.001
2178 2379 2378 1e-08 0.001
2178 2179 2380 1e-08 0.001
2178 2380 2379 1e-08 0.001
2179 2180 2380 1e-08 0.001
2180 2381 2380 1e-08 0.001
2180 2181 2382 1e-08 0.001
2180 2382 2381 1e-08 0.001
2181 2182 2382 1e-08 0.001
2182 2383 2382 1e-08 0.001
2182 2183 2384 1e-08 0.001
2182 2384 2383 1e-08 0.001
2183 2184 2384 1e-08 0.001
2184 2385 2384 1e-08 0.001
2184 2185 2386 1e-08 0.001
2184 2386 2385 1e-08 0.001
2185 2186 2386 1e-08 0.001
2186 2387 2386 1e-08 0.001
2186 2187 2388 1e-08 0.001
2186 2388 2387 1e-08 0.001
2187 2188 2388 1e-08 0.001
2188 2389 2388 1e-08 0.001
2188 2189 2390 1e-08 0.001
2188 2390 2389 1e-08 0.001
2189 2190 2390 1e-08 0.001
2190 2391 2390 1e-08 0.001
2190 2191 2392 1e-08 0.001
2190 2392 2391 1e-08 0.001
2191 2192 2392 1e-08 0.001
2192 2393 2392 1e-08 0.001
2192 2193 2394 1e-08 0.001
2192 2394 2393 1e-08 0.001
2193 2194 2394 1e-08 0.001
2194 2395 2394 1e-08 0.001
2194 2195 2396 1e-08 0.001
2194 2396 2395 1e-08 0.001
2195 2196 2396 1e-08 0.001
2196 2397 2396 1e-08 0.001
2196 2197 2398 1e-08 0.001
2196 2398 2397 1e-08 0.001
2197 2198 2398 1e-08 0.001
2198 2399 2398 1e-08 0.001
2198 2199 2400 1e-08 0.001
2198 2400 2399 1e-08 0.001
2199 2200 2400 1e-08 0.001
2200 2401 2400 1e-08 0.001
2200 2201 2402 1e-08 0.001
2200 2402 2401 1e-08 0.001
2201 2202 2402 1e-08 0.001
2202 2403 2402 1e-08 0.001
2202 2203 2404 1e-08 0.001
2202 2404 2403 1e-08 0.001
2203 2204 2404 1e-08 0.001
2204 2405 2404 1e-08 0.001
2204 2205 2406 1e-08 0.001
2204 2406 2405 1e-08 0.001
2205 2206 2406 1e-08 0.001
2206 2407 2406 1e-08 0.001
2206 2207 2408 1e-08 0.001
2206 2408 2407 1e-08 0.001
2207 2208 2408 1e-08 0.001
2208 2409 2408 1e-08 0.001
2208 2209 2410 1e-08 0.001
2208 2410 2409 1e-08 0.001
2209 2210 2410 1e-08 0.001
2210 2411 2410 1e-08 0.001
2211 2212 2412 1e-08 0.005
2212 2413 2412 1e-08 0.005
2212 2213 2414 1e-08 0.005
2212 2414 2413 1e-08 0.005
2213 2214 2414 1e-08 0.005
2214 2415 2414 1e-08 0.005
2214 2215 2416 1e-08 0.005
2214 2416 2415 1e-08 0.005
2215 2216 2416 1e-08 0.005
2216 2417 2416 1e-08 0.005
2216 2217 2418 1e-08 0.005
2216 2418 2417 1e-08 0.005
2217 2218 2418 1e-08 0.005
2218 2419 2418 1e-08 0.005
2218 2219 2420 1e-08 0.005
2218 2420 2419 1e-08 0.005
2219 2220 2420 1e-08 0.005
2220 2421 2420 1e-08 0.005
2220 2221 2422 1e-08 0.005
2220 2422 2421 1e-08 0.005
2221 2222 2422 1e-08 0.005
2222 2423 2422 1e-08 0.005
2222 2223 2424 1e-08 0.005
2222 2424 2423 1e-08 0.005
2223 2224 2424 1e-08 0.005
2224 2425 2424 1e-08 0.005
2224 2225 2426 1e-08 0.005
2224 2426 2425 1e-08 0.005
2225 2226 2426 1e-08 0.005
2226 2427 2426 1e-08 0.005
2226 2227 2428 1e-08 0.005
2226 2428 2427 1e-08 0.005
2227 2228 2428 1e-08 0.005
2228 2429 2428 1e-08 0.005
2228 2229 2430 1e-08 0.005
2228 2430 2429 1e-08 0.005
2229 2230 2430 1e-08 0.005
2230 2431 2430 1e-08 0.005
2230 2231 2432 1e-08 0.005
2230 2432 2431 1e-08 0.005
2231 2232 2432 1e-08 0.005
2232 2433 2432 1e-08 0.005
2232 2233 2434 1e-08 0.005
2232 2434 2433 1e-08 0.005
2233 2234 2434 1e-08 0.005
2234 2435 2434 1e-08 0.005
2234 2235 2436 1e-08 0.005
2234 2436 2435 1e-08 0.005
2235 2236 2436 1e-08 0.005
2236 2437 2436 1e-08 0.005
2236 2237 2438 1e-08 0.005
2236 2438 2437 1e-08 0.005
2237 2238 2438 1e-08 0.005
2238 2439 2438 1e-08 0.005
2238 2239 2440 1e-08 0.005
2238 2440 2439 1e-08 0.005
2239 2240 2440 1e-08 0.005
2240 2441 2440 1e-08 0.005
2240 2241 2442 1e-08 0.005
2240 2442 2441 1e-08 0.005
2241 2242 2442 1e-08 0.005
2242 2443 2442 1e-08 0.005
2242 2243 2444 1e-08 0.005
2242 2444 2443 1e-08 0.005
2243 2244 2444 1e-08 0.005
2244 2445 2444 1e-08 0.005
2244 2245 2446 1e-08 0.005
2244 2446 2445 1e-08 0.005
2245 2246 2446 1e-08 0.005
2246 2447 2446 1e-08 0.005
2246 2247 2448 1e-08 0.005
2246 2448 2447 1e-08 0.005
2247 2248 2448 1e-08 0.005
2248 2449 2448 1e-08 0.005
2248 2249 2450 1e-08 0.005
2248 2450 2449 1e-08 0.005
2249 2250 2450 1e-08 0.005
2250 2451 2450 1e-08 0.005
2250 2251 2452 1e-08 0.005
2250 2452 2451 1e-08 0.005
2251 2252 2452 1e-08 0.005
2252 2453 2452 1e-08 0.005
2252 2253 2454 1e-08 0.005
2252 2454 2453 1e-08 0.005
2253 2254 2454 1e-08 0.005
2254 2455 2454 1e-08 0.005
2254 2255 2456 1e-08 0.005
2254 2456 2455 1e-08 0.005
2255 2256 2456 1e-08 0.005
2256 2457 2456 1e-08 0.005
2256 2257 2458 1e-08 0.005
2256 2458 2457 1e-08 0.005
2257 2258 2458 1e-08 0.005
2258 2459 2458 1e-08 0.005
2258 2259 2460 1e-08 0.005
2258 2460 2459 1e-08 0.005
2259 2260 2460 1e-08 0.005
2260 2461 2460 1e-08 0.005
2260 2261 2462 1e-08 0.005
2260 2462 2461 1e-08 0.005
2261 2262 2462 1e-08 0.005
2262 2463 2462 1e-08 0.005
2262 2263 2464 1e-08 0.005
2262 2464 2463 1e-08 0.005
2263 2264 2464 1e-08 0.005
2264 2465 2464 1e-08 0.005
2264 2265 2466 1e-08 0.005
2264 2466 2465 1e-08 0.005
2265 2266 2466 1e-08 0.005
2266 2467 2466 1e-08 0.005
2266 2267 2468 1e-08 0.005
2266 2468 2467 1e-08 0.005
2267 2268 2468 1e-08 0.005
2268 2469 2468 1e-08 0.005
2268 2269 2470 1e-08 0.005
2268 2470 2469 1e-08 0.005
2269 2270 2470 1e-08 0.005
2270 2471 2470 1e-08 0.005
2270 2271 2472 1e-08 0.005
2270 2472 2471 1e-08 0.005
2271 2272 2472 1e-08 0.005
2272 2473 2472 1e-08 0.005
2272 2273 2474 1e-08 0.005
2272 2474 2473 1e-08 0.005
2273 2274 2474 1e-08 0.005
2274 2475 2474 1e-08 0.005
2274 2275 2476 1e-08 0.005
2274 2476 2475 1e-08 0.005
2275 2276 2476 1e-08 0.005
2276 2477 2476 1e-08 0.005
2276 2277 2478 1e-08 0.005
2276 2478 2477 1e-08 0.005
2277 2278 2478 1e-08 0.005
2278 2479 2478 1e-08 0.005
2278 2279 2480 1e-08 0.005
2278 2480 2479 1e-08 0.005
2279 2280 2480 1e-08 0.005
2280 2481 2480 1e-08 0.005
2280 2281 2482 1e-08 0.005
2280 2482 2481 1e-08 0.005
2281 2282 2482 1e-08 0.005
2282 2483 2482 1e-08 0.005
2282 2283 2484 1e-08 0.005
2282 2484 2483 1e-08 0.005
2283 2284 2484 1e-08 0.005
2284 2485 2484 1e-08 0.005
2284 2285 2486 1e-08 0.005
2284 2486 2485 1e-08 0.005
2285 2286 2486 1e-08 0.005
2286 2487 2486 1e-08 0.005
2286 2287 2488 1e-08 0.005
2286 2488 2487 1e-08 0.005
2287 2288 2488 1e-08 0.005
2288 2489 2488 1e-08 0.005
2288 2289 2490 1e-08 0.005
2288 2490 2489 1e-08 0.005
2289 2290 2490 1e-08 0.005
2290 2491 2490 1e-08 0.005
2290 2291 2492 1e-08 0.005
2290 2492 2491 1e-08 0.005
2291 2292 2492 1e-08 0.005
2292 2493 2492 1e-08 0.005
2292 2293 2494 1e-08 0.005
2292 2494 2493 1e-08 0.005
2293 2294 2494 1e-08 0.005
2294 2495 2494 1e-08 0.005
2294 2295 2496 1e-08 0.005
2294 2496 2495 1e-08 0.005
2295 2296 2496 1e-08 0.005
2296 2497 2496 1e-08 0.005
2296 2297 2498 1e-08 0.005
2296 2498 2497 1e-08 0.005
2297 2298 2498 1e-08 0.005
2298 2499 2498 1e-08 0.005
2298 2299 2500 1e-08 0.005
2298 2500 2499 1e-08 0.005
2299 2300 2500 1e-08 0.005
2300 2501 2500 1e-08 0.005
2300 2301 2502 1e-08 0.005
2300 2502 2501 1e-08 0.005
2301 2302 2502 1e-08 0.005
2302 2503 2502 1e-08 0.005
2302 2303 2504 1e-08 0.005
2302 2504 2503 1e-08 0.005
2303 2304 2504 1e-08 0.005
2304 2505 2504 1e-08 0.005
2304 2305 2506 1e-08 0.005
2304 2506 2505 1e-08 0.005
2305 2306 2506 1e-08 0.005
2306 2507 2506 1e-08 0.005
2306 2307 2508 1e-08 0.005
2306 2508 2507 1e-08 0.005
2307 2308 2508 1e-08 0.005
2308 2509 2508 1e-08 0.005
2308 2309 2510 1e-08 0.005
2308 2510 2509 1e-08 0.005
2309 2310 2510 1e-08 0.005
2310 2511 2510 1e-08 0.005
2310 2311 2512 1e-08 0.005
2310 2512 2511 1e-08 0.005
2311 2312 2512 1e-08 0.001
2312 2513 2512 1e-08 0.001
2312 2313 2514 1e-08 0.001
2312 2514 2513 1e-08 0.001
2313 2314 2514 1e-08 0.001
2314 2515 2514 1e-08 0.001
2314 2315 2516 1e-08 0.001
2314 2516 2515 1e-08 0.001
2315 2316 2516 1e-08 0.001
2316 2517 2516 1e-08 0.001
2316 2317 2518 1e-08 0.001
2316 2518 2517 1e-08 0.001
2317 2318 2518 1e-08 0.001
2318 2519 2518 1e-08 0.001
2318 2319 2520 1e-08 0.001
2318 2520 2519 1e-08 0.001
2319 2320 2520 1e-08 0.001
2320 2521 2520 1e-08 0.001
2320 2321 2522 1e-08 0.001
2320 2522 2521 1e-08 0.001
2321 2322 2522 1e-08 0.001
2322 2523 2522 1e-08 0.001
2322 2323 2524 1e-08 0.001
2322 2524 2523 1e-08 0.001
2323 2324 2524 1e-08 0.001
2324 2525 2524 1e-08 0.001
2324 2325 2526 1e-08 0.001
2324 2526 2525 1e-08 0.001
2325 2326 2526 1e-08 0.001
2326 2527 2526 1e-08 0.001
2326 2327 2528 1e-08 0.001
2326 2528 2527 1e-08 0.001
2327 2328 2528 1e-08 0.001
2328 2529 2528 1e-08 0.001
2328 2329 2530 1e-08 0.001
2328 2530 2529 1e-08 0.001
2329 2330 2530 1e-08 0.001
2330 2531 2530 1e-08 0.001
2330 2331 2532 1e-08 0.001
2330 2532 2531 1e-08 0.001
2331 2332 2532 1e-08 0.001
2332 2533 2532 1e-08 0.001
2332 2333 2534 1e-08 0.001
2332 2534 2533 1e-08 0.001
2333 2334 2534 1e-08 0.001
2334 2535 2534 1e-08 0.001
2334 2335 2536 1e-08 0.001
2334 2536 2535 1e-08 0.001
2335 2336 2536 1e-08 0.001
2336 2537 2536 1e-08 0.001
2336 2337 2538 1e-08 0.001
2336 2538 2537 1e-08 0.001
2337 2338 2538 1e-08 0.001
2338 2539 2538 1e-08 0.001
2338 2339 2540 1e-08 0.001
2338 2540 2539 1e-08 0.001
2339 2340 2540 1e-08 0.001
2340 2541 2540 1e-08 0.001
2340 2341 2542 1e-08 0.001
2340 2542 2541 1e-08 0.001
2341 2342 2542 1e-08 0.001
2342 2543 2542 1e-08 0.001
2342 2343 2544 1e-08 0.001
2342 2544 2543 1e-08 0.001
2343 2344 2544 1e-08 0.001
2344 2545 2544 1e-08 0.001
2344 2345 2546 1e-08 0.001
2344 2546 2545 1e-08 0.001
2345 2346 2546 1e-08 0.001
2346 2547 2546 1e-08 0.001
2346 2347 2548 1e-08 0.001
2346 2548 2547 1e-08 0.001
2347 2348 2548 1e-08 0.001
2348 2549 2548 1e-08 0.001
2348 2349 2550 1e-08 0.001
2348 2550 2549 1e-08 0.001
2349 2350 2550 1e-08 0.001
2350 2551 2550 1e-08 0.001
2350 2351 2552 1e-08 0.001
2350 2552 2551 1e-08 0.001
2351 2352 2552 1e-08 0.001
2352 2553 2552 1e-08 0.001
2352 2353 2554 1e-08 0.001
2352 2554 2553 1e-08 0.001
2353 2354 2554 1e-08 0.001
2354 2555 2554 1e-08 0.001
2354 2355 2556 1e-08 0.001
2354 2556 2555 1e-08 0.001
2355 2356 2556 1e-08 0.001
2356 2557 2556 1e-08 0.001
2356 2357 2558 1e-08 0.001
2356 2558 2557 1e-08 0.001
2357 2358 2558 1e-08 0.001
2358 2559 2558 1e-08 0.001
2358 2359 2560 1e-08 0.001
2358 2560 2559 1e-08 0.001
2359 2360 2560 1e-08 0.001
2360 2561 2560 1e-08 0.001
2360 2361 2562 1e-08 0.001
2360 2562 2561 1e-08 0.001
2361 2362 2562 1e-08 0.001
2362 2563 2562 1e-08 0.001
2362 2363 2564 1e-08 0.001
2362 2564 2563 1e-08 0.001
2363 2364 2564 1e-08 0.001
2364 2565 2564 1e-08 0.001
2364 2365 2566 1e-08 0.001
2364 2566 2565 1e-08 0.001
2365 2366 2566 1e-08 0.001
2366 2567 2566 1e-08 0.001
2366 2367 2568 1e-08 0.001
2366 2568 2567 1e-08 0.001
2367 2368 2568 1e-08 0.001
2368 2569 2568 1e-08 0.001
2368 2369 2570 1e-08 0.001
2368 2570 2569 1e-08 0.001
2369 2370 2570 1e-08 0.001
2370 2571 2570 1e-08 0.001
2370 2371 2572 1e-08 0.001
2370 2572 2571 1e-08 0.001
2371 2372 2572 1e-08 0.001
2372 2573 2572 1e-08 0.001
2372 2373 2574 1e-08 0.001
2372 2574 2573 1e-08 0.001
2373 2374 2574 1e-08 0.001
2374 2575 2574 1e-08 0.001
2374 2375 2576 1e-08 0.001
2374 2576 2575 1e-08 0.001
2375 2376 2576 1e-08 0.001
2376 2577 2576 1e-08 0.001
2376 2377 2578 1e-08 0.001
2376 2578 2577 1e-08 0.001
2377 2378 2578 1e-08 0.001
2378 2579 2578 1e-08 0.001
2378 2379 2580 1e-08 0.001
2378 2580 2579 1e-08 0.001
2379 2380 2580 1e-08 0.001
2380 2581 2580 1e-08 0.001
2380 2381 2582 1e-08 0.001
2380 2582 2581 1e-08 0.001
2381 2382 2582 1e-08 0.001
2382 2583 2582 1e-08 0.001
2382 2383 2584 1e-08 0.001
2382 2584 2583 1e-08 0.001
2383 2384 2584 1e-08 0.001
2384 2585 2584 1e-08 0.001
2384 2385 2586 1e-08 0.001
2384 2586 2585 1e-08 0.001
2385 2386 2586 1e-08 0.001
2386 2587 2586 1e-08 0.001
2386 2387 2588 1e-08 0.001
2386 2588 2587 1e-08 0.001
2387 2388 2588 1e-08 0.001
2388 2589 2588 1e-08 0.001
2388 2389 2590 1e-08 0.001
2388 2590 2589 1e-08 0.001
2389 2390 2590 1e-08 0.001
2390 2591 2590 1e-08 0.001
2390 2391 2592 1e-08 0.001
2390 2592 2591 1e-08 0.001
2391 2392 2592 1e-08 0.001
2392 2593 2592 1e-08 0.001
2392 2393 2594 1e-08 0.001
2392 2594 2593 1e-08 0.001
2393 2394 2594 1e-08 0.001
2394 2595 2594 1e-08 0.001
2394 2395 2596 1e-08 0.001
2394 2596 2595 1e-08 0.001
2395 2396 2596 1e-08 0.001
2396 2597 2596 1e-08 0.001
2396 2397 2598 1e-08 0.001
2396 2598 2597 1e-08 0.001
2397 2398 2598 1e-08 0.001
2398 2599 2598 1e-08 0.001
2398 2399 2600 1e-08 0.001
2398 2600 2599 1e-08 0.001
2399 2400 2600 1e-08 0.001
2400 2601 2600 1e-08 0.001
2400 2401 2602 1e-08 0.001
2400 2602 2601 1e-08 0.001
2401 2402 2602 1e-08 0.001
2402 2603 2602 1e-08 0.001
2402 2403 2604 1e-08 0.001
2402 2604 2603 1e-08 0.001
2403 2404 2604 1e-08 0.001
2404 2605 2604 1e-08 0.001
2404 2405 2606 1e-08 0.001
2404 2606 2605 1e-08 0.001
2405 2406 2606 1e-08 0.001
2406 2607 2606 1e-08 0.001
2406 2407 2608 1e-08 0.001
2406 2608 2607 1e-08 0.001
2407 2408 2608 1e-08 0.001
2408 2609 2608 1e-08 0.001
2408 2409 2610 1e-08 0.001
2408 2610 2609 1e-08 0.001
2409 2410 2610 1e-08 0.001
2410 2611 2610 1e-08 0.001
2410 2411 2612 1e-08 0.001
2410 2612 2611 1e-08 0.001
2412 2413 2614 1e-08 0.005
2412 2614 2613 1e-08 0.005
2413 2414 2614 1e-08 0.005
2414 2615 2614 1e-08 0.005
2414 2415 2616 1e-08 0.005
2414 2616 2615 1e-08 0.005
2415 2416 2616 1e-08 0.005
2416 2617 2616 1e-08 0.005
2416 2417 2618 1e-08 0.005
2416 2618 2617 1e-08 0.005
2417 2418 2618 1e-08 0.005
2418 2619 2618 1e-08 0.005
2418 2419 2620 1e-08 0.005
2418 2620 2619 1e-08 0.005
2419 2420 2620 1e-08 0.005
2420 2621 2620 1e-08 0.005
2420 2421 2622 1e-08 0.005
2420 2622 2621 1e-08 0.005
2421 2422 2622 1e-08 0.005
2422 2623 2622 1e-08 0.005
2422 2423 2624 1e-08 0.005
2422 2624 2623 1e-08 0.005
2423 2424 2624 1e-08 0.005
2424 2625 2624 1e-08 0.005
2424 2425 2626 1e-08 0.005
2424 2626 2625 1e-08 0.005
2425 2426 2626 1e-08 0.005
2426 2627 2626 1e-08 0.005
2426 2427 2628 1e-08 0.005
2426 2628 2627 1e-08 0.005
2427 2428 2628 1e-08 0.005
2428 2629 2628 1e-08 0.005
2428 2429 2630 1e-08 0.005
2428 2630 2629 1e-08 0.005
2429 2430 2630 1e-08 0.005
2430 2631 2630 1e-08 0.005
2430 2431 2632 1e-08 0.005
2430 2632 2631 1e-08 0.005
2431 2432 2632 1e-08 0.005
2432 2633 2632 1e-08 0.005
2432 2433 2634 1e-08 0.005
2432 2634 2633 1e-08 0.005
2433 2434 2634 1e-08 0.005
2434 2635 2634 1e-08 0.005
2434 2435 2636 1e-08 0.005
2434 2636 2635 1e-08 0.005
2435 2436 2636 1e-08 0.005
2436 2637 2636 1e-08 0.005
2436 2437 2638 1e-08 0.005
2436 2638 2637 1e-08 0.005
2437 2438 2638 1e-08 0.005
2438 2639 2638 1e-08 0.005
2438 2439 2640 1e-08 0.005
2438 2640 2639 1e-08 0.005
2439 2440 2640 1e-08 0.005
2440 2641 2640 1e-08 0.005
2440 2441 2642 1e-08 0.005
2440 2642 2641 1e-08 0.005
2441 2442 2642 1e-08 0.005
2442 2643 2642 1e-08 0.005
2442 2443 2644 1e-08 0.005
2442 2644 2643 1e-08 0.005
2443 2444 2644 1e-08 0.005
2444 2645 2644 1e-08 0.005
2444 2445 2646 1e-08 0.005
2444 2646 2645 1e-08 0.005
2445 2446 2646 1e-08 0.005
2446 2647 2646 1e-08 0.005
2446 2447 2648 1e-08 0.005
2446 2648 2647 1e-08 0.005
2447 2448 2648 1e-08 0.005
2448 2649 2648 1e-08 0.005
2448 2449 2650 1e-08 0.005
2448 2650 2649 1e-08 0.005
2449 2450 2650 1e-08 0.005
2450 2651 2650 1e-08 0.005
2450 2451 2652 1e-08 0.005
2450 2652 2651 1e-08 0.005
2451 2452 2652 1e-08 0.005
2452 2653 2652 1e-08 0.005
2452 2453 2654 1e-08 0.005
2452 2654 2653 1e-08 0.005
2453 2454 2654 1e-08 0.005
2454 2655 2654 1e-08 0.005
2454 2455 2656 1e-08 0.005
2454 2656 2655 1e-08 0.005
2455 2456 2656 1e-08 0.005
2456 2657 2656 1e-08 0.005
2456 2457 2658 1e-08 0.005
2456 2658 2657 1e-08 0.005
2457 2458 2658 1e-08 0.005
2458 2659 2658 1e-08 0.005
2458 2459 2660 1e-08 0.005
2458 2660 2659 1e-08 0.005
2459 2460 2660 1e-08 0.005
2460 2661 2660 1e-08 0.005
2460 2461 2662 1e-08 0.005
2460 2662 2661 1e-08 0.005
2461 2462 2662 1e-08 0.005
2462 2663 2662 1e-08 0.005
2462 2463 2664 1e-08 0.005
2462 2664 2663 1e-08 0.005
2463 2464 2664 1e-08 0.005
2464 2665 2664 1e-08 0.005
2464 2465 2666 1e-08 0.005
2464 2666 2665 1e-08 0.005
2465 2466 2666 1e-08 0.005
2466 2667 2666 1e-08 0.005
2466 2467 2668 1e-08 0.005
2466 2668 2667 1e-08 0.005
2467 2468 2668 1e-08 0.005
2468 2669 2668 1e-08 0.005
2468 2469 2670 1e-08 0.005
2468 2670 2669 1e-08 0.005
2469 2470 2670 1e-08 0.005
2470 2671 2670 1e-08 0.005
2470 2471 2672 1e-08 0.005
2470 2672 2671 1e-08 0.005
2471 2472 2672 1e-08 0.005
2472 2673 2672 1e-08 0.005
2472 2473 2674 1e-08 0.005
2472 2674 2673 1e-08 0.005
2473 2474 2674 1e-08 0.005
2474 2675 2674 1e-08 0.005
2474 2475 2676 1e-08 0.005
2474 2676 2675 1e-08 0.005
2475 2476 2676 1e-08 0.005
2476 2677 2676 1e-08 0.005
2476 2477 2678 1e-08 0.005
2476 2678 2677 1e-08 0.005
2477 2478 2678 1e-08 0.005
2478 2679 2678 1e-08 0.005
2478 2479 2680 1e-08 0.005
2478 2680 2679 1e-08 0.005
2479 2480 2680 1e-08 0.005
2480 2681 2680 1e-08 0.005
2480 2481 2682 1e-08 0.005
2480 2682 2681 1e-08 0.005
2481 2482 2682 1e-08 0.005
2482 2683 2682 1e-08 0.005
2482 2483 2684 1e-08 0.005
2482 2684 2683 1e-08 0.005
2483 2484 2684 1e-08 0.005
2484 2685 2684 1e-08 0.005
2484 2485 2686 1e-08 0.005
2484 2686 2685 1e-08 0.005
2485 2486 2686 1e-08 0.005
2486 2687 2686 1e-08 0.005
2486 2487 2688 1e-08 0.005
2486 2688 2687 1e-08 0.005
2487 2488 2688 1e-08 0.005
2488 2689 2688 1e-08 0.005
2488 2489 2690 1e-08 0.005
2488 2690 2689 1e-08 0.005
2489 2490 2690 1e-08 0.005
2490 2691 2690 1e-08 0.005
2490 2491 2692 1e-08 0.005
2490 2692 2691 1e-08 0.005
2491 2492 2692 1e-08 0.005
2492 2693 2692 1e-08 0.005
2492 2493 2694 1e-08 0.005
2492 2694 2693 1e-08 0.005
2493 2494 2694 1e-08 0.005
2494 2695 2694 1e-08 0.005
2494 2495 2696 1e-08 0.005
2494 2696 2695 1e-08 0.005
2495 2496 2696 1e-08 0.005
2496 2697 2696 1e-08 0.005
2496 2497 2698 1e-08 0.005
2496 2698 2697 1e-08 0.005
2497 2498 2698 1e-08 0.005
2498 2699 2698 1e-08 0.005
2498 2499 2700 1e-08 0.005
2498 2700 2699 1e-08 0.005
2499 2500 2700 1e-08 0.005
2500 2701 2700 1e-08 0.005
2500 2501 2702 1e-08 0.005
2500 2702 2701 1e-08 0.005
2501 2502 2702 1e-08 0.005
2502 2703 2702 1e-08 0.005
2502 2503 2704 1e-08 0.005
2502 2704 2703 1e-08 0.005
2503 2504 2704 1e-08 0.005
2504 2705 2704 1e-08 0.005
2504 2505 2706 1e-08 0.005
2504 2706 2705 1e-08 0.005
2505 2506 2706 1e-08 0.005
2506 2707 2706 1e-08 0.005
2506 2507 2708 1e-08 0.005
2506 2708 2707 1e-08 0.005
2507 2508 2708 1e-08 0.005
2508 2709 2708 1e-08 0.005
2508 2509 2710 1e-08 0.005
2508 2710 2709 1e-08 0.005
2509 2510 2710 1e-08 0.005
2510 2711 2710 1e-08 0.005
2510 2511 2712 1e-08 0.005
2510 2712 2711 1e-08 0.005
2511 2512 2712 1e-08 0.005
2512 2713 2712 1e-08 0.005
2512 2513 2714 1e-08 0.001
2512 2714 2713 1e-08 0.001
2513 2514 2714 1e-08 0.001
2514 2715 2714 1e-08 0.001
2514 2515 2716 1e-08 0.001
2514 2716 2715 1e-08 0.001
2515 2516 2716 1e-08 0.001
2516 2717 2716 1e-08 0.001
2516 2517 2718 1e-08 0.001
2516 2718 2717 1e-08 0.001
2517 2518 2718 1e-08 0.001
2518 2719 2718 1e-08 0.001
2518 2519 2720 1e-08 0.001
2518 2720 2719 1e-08 0.001
2519 2520 2720 1e-08 0.001
2520 2721 2720 1e-08 0.001
2520 2521 2722 1e-08 0.001
2520 2722 2721 1e-08 0.001
2521 2522 2722 1e-08 0.001
2522 2723 2722 1e-08 0.001
2522 2523 2724 1e-08 0.001
2522 2724 2723 1e-08 0.001
2523 2524 2724 1e-08 0.001
2524 2725 2724 1e-08 0.001
2524 2525 2726 1e-08 0.001
2524 2726 2725 1e-08 0.001
2525 2526 2726 1e-08 0.001
2526 2727 2726 1e-08 0.001
2526 2527 2728 1e-08 0.001
2526 2728 2727 1e-08 0.001
2527 2528 2728 1e-08 0.001
2528 2729 2728 1e-08 0.001
2528 2529 2730 1e-08 0.001
2528 2730 2729 1e-08 0.001
2529 2530 2730 1e-08 0.001
2530 2731 2730 1e-08 0.001
2530 2531 2732 1e-08 0.001
2530 2732 2731 1e-08 0.001
2531 2532 2732 1e-08 0.001
2532 2733 2732 1e-08 0.001
2532 2533 2734 1e-08 0.001
2532 2734 2733 1e-08 0.001
2533 2534 2734 1e-08 0.001
2534 2735 2734 1e-08 0.001
2534 2535 2736 1e-08 0.001
2534 2736 2735 1e-08 0.001
2535 2536 2736 1e-08 0.001
2536 2737 2736 1e-08 0.001
2536 2537 2738 1e-08 0.001
2536 2738 2737 1e-08 0.001
2537 2538 2738 1e-08 0.001
2538 2739 2738 1e-08 0.001
2538 2539 2740 1e-08 0.001
2538 2740 2739 1e-08 0.001
2539 2540 2740 1e-08 0.001
2540 2741 2740 1e-08 0.001
2540 2541 2742 1e-08 0.001
2540 2742 2741 1e-08 0.001
2541 2542 2742 1e-08 0.001
2542 2743 2742 1e-08 0.001
2542 2543 2744 1e-08 0.001
2542 2744 2743 1e-08 0.001
2543 2544 2744 1e-08 0.001
2544 2745 2744 1e-08 0.001
2544 2545 2746 1e-08 0.001
2544 2746 2745 1e-08 0.001
2545 2546 2746 1e-08 0.001
2546 2747 2746 1e-08 0.001
2546 2547 2748 1e-08 0.001
2546 2748 2747 1e-08 0.001
2547 2548 2748 1e-08 0.001
2548 2749 2748 1e-08 0.001
2548 2549 2750 1e-08 0.001
2548 2750 2749 1e-08 0.001
2549 2550 2750 1e-08 0.001
2550 2751 2750 1e-08 0.001
2550 2551 2752 1e-08 0.001
2550 2752 2751 1e-08 0.001
2551 2552 2752 1e-08 0.001
2552 2753 2752 1e-08 0.001
2552 2553 2754 1e-08 0.001
2552 2754 2753 1e-08 0.001
2553 2554 2754 1e-08 0.001
2554 2755 2754 1e-08 0.001
2554 2555 2756 1e-08 0.001
2554 2756 2755 1e-08 0.001
2555 2556 2756 1e-08 0.001
2556 2757 2756 1e-08 0.001
2556 2557 2758 1e-08 0.001
2556 2758 2757 1e-08 0.001
2557 2558 2758 1e-08 0.001
2558 2759 2758 1e-08 0.001
2558 2559 2760 1e-08 0.001
2558 2760 2759 1e-08 0.001
2559 2560 2760 1e-08 0.001
2560 2761 2760 1e-08 0.001
2560 2561 2762 1e-08 0.001
2560 2762 2761 1e-08 0.001
2561 2562 2762 1e-08 0.001
2562 2763 2762 1e-08 0.001
2562 2563 2764 1e-08 0.001
2562 2764 2763 1e-08 0.001
2563 2564 2764 1e-08 0.001
2564 2765 2764 1e-08 0.001
2564 2565 2766 1e-08 0.001
2564 2766 2765 1e-08 0.001
2565 2566 2766 1e-08 0.001
2566 2767 2766 1e-08 0.001
2566 2567 2768 1e-08 0.001
2566 2768 2767 1e-08 0.001
2567 2568 2768 1e-08 0.001
2568 2769 2768 1e-08 0.001
2568 2569 2770 1e-08 0.001
2568 2770 2769 1e-08 0.001
2569 2570 2770 1e-08 0.001
2570 2771 2770 1e-08 0.001
2570 2571 2772 1e-08 0.001
2570 2772 2771 1e-08 0.001
2571 2572 2772 1e-08 0.001
2572 2773 2772 1e-08 0.001
2572 2573 2774 1e-08 0.001
2572 2774 2773 1e-08 0.001
2573 2574 2774 1e-08 0.001
2574 2775 2774 1e-08 0.001
2574 2575 2776 1e-08 0.001
2574 2776 2775 1e-08 0.001
2575 2576 2776 1e-08 0.001
2576 2777 2776 1e-08 0.001
2576 2577 2778 1e-08 0.001
2576 2778 2777 1e-08 0.001
2577 2578 2778 1e-08 0.001
2578 2779 2778 1e-08 0.001
2578 2579 2780 1e-08 0.001
2578 2780 2779 1e-08 0.001
2579 2580 2780 1e-08 0.001
2580 2781 2780 1e-08 0.001
2580 2581 2782 1e-08 0.001
2580 2782 2781 1e-08 0.001
2581 2582 2782 1e-08 0.001
2582 2783 2782 1e-08 0.001
2582 2583 2784 1e-08 0.001
2582 2784 2783 1e-08 0.001
2583 2584 2784 1e-08 0.001
2584 2785 2784 1e-08 0.001
2584 2585 2786 1e-08 0.001
2584 2786 2785 1e-08 0.001
2585 2586 2786 1e-08 0.001
2586 2787 2786 1e-08 0.001
2586 2587 2788 1e-08 0.001
2586 2788 2787 1e-08 0.001
2587 2588 2788 1e-08 0.001
2588 2789 2788 1e-08 0.001
2588 2589 2790 1e-08 0.001
2588 2790 2789 1e-08 0.001
2589 2590 2790 1e-08 0.001
2590 2791 2790 1e-08 0.001
2590 2591 2792 1e-08 0.001
2590 2792 2791 1e-08 0.001
2591 2592 2792 1e-08 0.001
2592 2793 2792 1e-08 0.001
2592 2593 2794 1e-08 0.001
2592 2794 2793 1e-08 0.001
2593 2594 2794 1e-08 0.001
2594 2795 2794 1e-08 0.001
2594 2595 2796 1e-08 0.001
2594 2796 2795 1e-08 0.001
2595 2596 2796 1e-08 0.001
2596 2797 2796 1e-08 0.001
2596 2597 2798 1e-08 0.001
2596 2798 2797 1e-08 0.001
2597 2598 2798 1e-08 0.001
2598 2799 2798 1e-08 0.001
2598 2599 2800 1e-08 0.001
2598 2800 2799 1e-08 0.001
2599 2600 2800 1e-08 0.001
2600 2801 2800 1e-08 0.001
2600 2601 2802 1e-08 0.001
2600 2802 2801 1e-08 0.001
2601 2602 2802 1e-08 0.001
2602 2803 2802 1e-08 0.001
2602 2603 2804 1e-08 0.001
2602 2804 2803 1e-08 0.001
2603 2604 2804 1e-08 0.001
2604 2805 2804 1e-08 0.001
2604 2605 2806 1e-08 0.001
2604 2806 2805 1e-08 0.001
2605 2606 2806 1e-08 0.001
2606 2807 2806 1e-08 0.001
2606 2607 2808 1e-08 0.001
2606 2808 2807 1e-08 0.001
2607 2608 2808 1e-08 0.001
2608 2809 2808 1e-08 0.001
2608 2609 2810 1e-08 0.001
2608 2810 2809 1e-08 0.001
2609 2610 2810 1e-08 0.001
2610 2811 2810 1e-08 0.001
2610 2611 2812 1e-08 0.001
2610 2812 2811 1e-08 0.001
2611 2612 2812 1e-08 0.001
2612 2813 2812 1e-08 0.001
2613 2614 2814 1e-08 0.005
2614 2815 2814 1e-08 0.005
2614 2615 2816 1e-08 0.005
2614 2816 2815 1e-08 0.005
2615 2616 2816 1e-08 0.005
2616 2817 2816 1e-08 0.005
2616 2617 2818 1e-08 0.005
2616 2818 2817 1e-08 0.005
2617 2618 2818 1e-08 0.005
2618 2819 2818 1e-08 0.005
2618 2619 2820 1e-08 0.005
2618 2820 2819 1e-08 0.005
2619 2620 2820 1e-08 0.005
2620 2821 2820 1e-08 0.005
2620 2621 2822 1e-08 0.005
2620 2822 2821 1e-08 0.005
2621 2622 2822 1e-08 0.005
2622 2823 2822 1e-08 0.005
2622 2623 2824 1e-08 0.005
2622 2824 2823 1e-08 0.005
2623 2624 2824 1e-08 0.005
2624 2825 2824 1e-08 0.005
2624 2625 2826 1e-08 0.005
2624 2826 2825 1e-08 0.005
2625 2626 2826 1e-08 0.005
2626 2827 2826 1e-08 0.005
2626 2627 2828 1e-08 0.005
2626 2828 2827 1e-08 0.005
2627 2628 2828 1e-08 0.005
2628 2829 2828 1e-08 0.005
2628 2629 2830 1e-08 0.005
2628 2830 2829 1e-08 0.005
2629 2630 2830 1e-08 0.005
2630 2831 2830 1e-08 0.005
2630 2631 2832 1e-08 0.005
2630 2832 2831 1e-08 0.005
2631 2632 2832 1e-08 0.005
2632 2833 2832 1e-08 0.005
2632 2633 2834 1e-08 0.005
2632 2834 2833 1e-08 0.005
2633 2634 2834 1e-08 0.005
2634 2835 2834 1e-08 0.005
2634 2635 2836 1e-08 0.005
2634 2836 2835 1e-08 0.005
2635 2636 2836 1e-08 0.005
2636 2837 2836 1e-08 0.005
2636 2637 2838 1e-08 0.005
2636 2838 2837 1e-08 0.005
2637 2638 2838 1e-08 0.005
2638 2839 2838 1e-08 0.005
2638 2639 2840 1e-08 0.005
2638 2840 2839 1e-08 0.005
2639 2640 2840 1e-08 0.005
2640 2841 2840 1e-08 0.005
2640 2641 2842 1e-08 0.005
2640 2842 2841 1e-08 0.005
2641 2642 2842 1e-08 0.005
2642 2843 2842 1e-08 0.005
2642 2643 2844 1e-08 0.005
2642 2844 2843 1e-08 0.005
2643 2644 2844 1e-08 0.005
2644 2845 2844 1e-08 0.005
2644 2645 2846 1e-08 0.005
2644 2846 2845 1e-08 0.005
2645 2646 2846 1e-08 0.005
2646 2847 2846 1e-08 0.005
2646 2647 2848 1e-08 0.005
2646 2848 2847 1e-08 0.005
2647 2648 2848 1e-08 0.005
2648 2849 2848 1e-08 0.005
2648 2649 2850 1e-08 0.005
2648 2850 2849 1e-08 0.005
2649 2650 2850 1e-08 0.005
2650 2851 2850 1e-08 0.005
2650 2651 2852 1e-08 0.005
2650 2852 2851 1e-08 0.005
2651 2652 2852 1e-08 0.005
2652 2853 2852 1e-08 0.005
2652 2653 2854 1e-08 0.005
2652 2854 2853 1e-08 0.005
2653 2654 2854 1e-08 0.005
2654 2855 2854 1e-08 0.005
2654 2655 2856 1e-08 0.005
2654 2856 2855 1e-08 0.005
2655 2656 2856 1e-08 0.005
2656 2857 2856 1e-08 0.005
2656 2657 2858 1e-08 0.005
2656 2858 2857 1e-08 0.005
2657 2658 2858 1e-08 0.005
2658 2859 2858 1e-08 0.005
2658 2659 2860 1e-08 0.005
2658 2860 2859 1e-08 0.005
2659 2660 2860 1e-08 0.005
2660 2861 2860 1e-08 0.005
2660 2661 2862 1e-08 0.005
2660 2862 2861 1e-08 0.005
2661 2662 2862 1e-08 0.005
2662 2863 2862 1e-08 0.005
2662 2663 2864 1e-08 0.005
2662 2864 2863 1e-08 0.005
2663 2664 2864 1e-08 0.005
2664 2865 2864 1e-08 0.005
2664 2665 2866 1e-08 0.005
2664 2866 2865 1e-08 0.005
2665 2666 2866 1e-08 0.005
2666 2867 2866 1e-08 0.005
2666 2667 2868 1e-08 0.005
2666 2868 2867 1e-08 0.005
2667 2668 2868 1e-08 0.005
2668 2869 2868 1e-08 0.005
2668 2669 2870 1e-08 0.005
2668 2870 2869 1e-08 0.005
2669 2670 2870 1e-08 0.005
2670 2871 2870 1e-08 0.005
2670 2671 2872 1e-08 0.005
2670 2872 2871 1e-08 0.005
2671 2672 2872 1e-08 0.005
2672 2873 2872 1e-08 0.005
2672 2673 2874 1e-08 0.005
2672 2874 2873 1e-08 0.005
2673 2674 2874 1e-08 0.005
2674 2875 2874 1e-08 0.005
2674 2675 2876 1e-08 0.005
2674 2876 2875 1e-08 0.005
2675 2676 2876 1e-08 0.005
2676 2877 2876 1e-08 0.005
2676 2677 2878 1e-08 0.005
2676 2878 2877 1e-08 0.005
2677 2678 2878 1e-08 0.005
2678 2879 2878 1e-08 0.005
2678 2679 2880 1e-08 0.005
2678 2880 2879 1e-08 0.005
2679 2680 2880 1e-08 0.005
2680 2881 2880 1e-08 0.005
2680 2681 2882 1e-08 0.005
2680 2882 2881 1e-08 0.005
2681 2682 2882 1e-08 0.005
2682 2883 2882 1e-08 0.005
2682 2683 2884 1e-08 0.005
2682 2884 2883 1e-08 0.005
2683 2684 2884 1e-08 0.005
2684 2885 2884 1e-08 0.005
2684 2685 2886 1e-08 0.005
2684 2886 2885 1e-08 0.005
2685 2686 2886 1e-08 0.005
2686 2887 2886 1e-08 0.005
2686 2687 2888 1e-08 0.005
2686 2888 2887 1e-08 0.005
2687 2688 2888 1e-08 0.005
2688 2889 2888 1e-08 0.005
2688 2689 2890 1e-08 0.005
2688 2890 2889 1e-08 0.005
2689 2690 2890 1e-08 0.005
2690 2891 2890 1e-08 0.005
2690 2691 2892 1e-08 0.005
2690 2892 2891 1e-08 0.005
2691 2692 2892 1e-08 0.005
2692 2893 2892 1e-08 0.005
2692 2693 2894 1e-08 0.005
2692 2894 2893 1e-08 0.005
2693 2694 2894 1e-08 0.005
2694 2895 2894 1e-08 0.005
2694 2695 2896 1e-08 0.005
2694 2896 2895 1e-08 0.005
2695 2696 2896 1e-08 0.005
2696 2897 2896 1e-08 0.005
2696 2697 2898 1e-08 0.005
2696 2898 2897 1e-08 0.005
2697 2698 2898 1e-08 0.005
2698 2899 2898 1e-08 0.005
2698 2699 2900 1e-08 0.005
2698 2900 2899 1e-08 0.005
2699 2700 2900 1e-08 0.005
2700 2901 2900 1e-08 0.005
2700 2701 2902 1e-08 0.005
2700 2902 2901 1e-08 0.005
2701 2702 2902 1e-08 0.005
2702 2903 2902 1e-08 0.005
2702 2703 2904 1e-08 0.005
2702 2904 2903 1e-08 0.005
2703 2704 2904 1e-08 0.005
2704 2905 2904 1e-08 0.005
2704 2705 2906 1e-08 0.005
2704 2906 2905 1e-08 0.005
2705 2706 2906 1e-08 0.005
2706 2907 2906 1e-08 0.005
2706 2707 2908 1e-08 0.005
2706 2908 2907 1e-08 0.005
2707 2708 2908 1e-08 0.005
2708 2909 2908 1e-08 0.005
2708 2709 2910 1e-08 0.005
2708 2910 2909 1e-08 0.005
2709 2710 2910 1e-08 0.005
2710 2911 2910 1e-08 0.005
2710 2711 2912 1e-08 0.005
2710 2912 2911 1e-08 0.005
2711 2712 2912 1e-08 0.005
2712 2913 2912 1e-08 0.005
2712 2713 2914 1e-08 0.005
2712 2914 2913 1e-08 0.005
2713 2714 2914 1e-08 0.001
2714 2915 2914 1e-08 0.001
2714 2715 2916 1e-08 0.001
2714 2916 2915 1e-08 0.001
2715 2716 2916 1e-08 0.001
2716 2917 2916 1e-08 0.001
2716 2717 2918 1e-08 0.001
2716 2918 2917 1e-08 0.001
2717 2718 2918 1e-08 0.001
2718 2919 2918 1e-08 0.001
2718 2719 2920 1e-08 0.001
2718 2920 2919 1e-08 0.001
2719 2720 2920 1e-08 0.001
2720 2921 2920 1e-08 0.001
2720 2721 2922 1e-08 0.001
2720 2922 2921 1e-08 0.001
2721 2722 2922 1e-08 0.001
2722 2923 2922 1e-08 0.001
2722 2723 2924 1e-08 0.001
2722 2924 2923 1e-08 0.001
2723 2724 2924 1e-08 0.001
2724 2925 2924 1e-08 0.001
2724 2725 2926 1e-08 0.001
2724 2926 2925 1e-08 0.001
2725 2726 2926 1e-08 0.001
2726 2927 2926 1e-08 0.001
2726 2727 2928 1e-08 0.001
2726 2928 2927 1e-08 0.001
2727 2728 2928 1e-08 0.001
2728 2929 2928 1e-08 0.001
2728 2729 2930 1e-08 0.001
2728 2930 2929 1e-08 0.001
2729 2730 2930 1e-08 0.001
2730 2931 2930 1e-08 0.001
2730 2731 2932 1e-08 0.001
2730 2932 2931 1e-08 0.001
2731 2732 2932 1e-08 0.001
2732 2933 2932 1e-08 0.001
2732 2733 2934 1e-08 0.001
2732 2934 2933 1e-08 0.001
2733 2734 2934 1e-08 0.001
2734 2935 2934 1e-08 0.001
2734 2735 2936 1e-08 0.001
2734 2936 2935 1e-08 0.001
2735 2736 2936 1e-08 0.001
2736 2937 2936 1e-08 0.001
2736 2737 2938 1e-08 0.001
2736 2938 2937 1e-08 0.001
2737 2738 2938 1e-08 0.001
2738 2939 2938 1e-08 0.001
2738 2739 2940 1e-08 0.001
2738 2940 2939 1e-08 0.001
2739 2740 2940 1e-08 0.001
2740 2941 2940 1e-08 0.001
2740 2741 2942 1e-08 0.001
2740 2942 2941 1e-08 0.001
2741 2742 2942 1e-08 0.001
2742 2943 2942 1e-08 0.001
2742 2743 2944 1e-08 0.001
2742 2944 2943 1e-08 0.001
2743 2744 2944 1e-08 0.001
2744 2945 2944 1e-08 0.001
2744 2745 2946 1e-08 0.001
2744 2946 2945 1e-08 0.001
2745 2746 2946 1e-08 0.001
2746 2947 2946 1e-08 0.001
2746 2747 2948 1e-08 0.001
2746 2948 2947 1e-08 0.001
2747 2748 2948 1e-08 0.001
2748 2949 2948 1e-08 0.001
2748 2749 2950 1e-08 0.001
2748 2950 2949 1e-08 0.001
2749 2750 2950 1e-08 0.001
2750 2951 2950 1e-08 0.001
2750 2751 2952 1e-08 0.001
2750 2952 2951 1e-08 0.001
2751 2752 2952 1e-08 0.001
2752 2953 2952 1e-08 0.001
2752 2753 2954 1e-08 0.001
2752 2954 2953 1e-08 0.001
2753 2754 2954 1e-08 0.001
2754 2955 2954 1e-08 0.001
2754 2755 2956 1e-08 0.001
2754 2956 2955 1e-08 0.001
2755 2756 2956 1e-08 0.001
2756 2957 2956 1e-08 0.001
2756 2757 2958 1e-08 0.001
2756 2958 2957 1e-08 0.001
2757 2758 2958 1e-08 0.001
2758 2959 2958 1e-08 0.001
2758 2759 2960 1e-08 0.001
2758 2960 2959 1e-08 0.001
2759 2760 2960 1e-08 0.001
2760 2961 2960 1e-08 0.001
2760 2761 2962 1e-08 0.001
2760 2962 2961 1e-08 0.001
2761 2762 2962 1e-08 0.001
2762 2963 2962 1e-08 0.001
2762 2763 2964 1e-08 0.001
2762 2964 2963 1e-08 0.001
2763 2764 2964 1e-08 0.001
2764 2965 2964 1e-08 0.001
2764 2765 2966 1e-08 0.001
2764 2966 2965 1e-08 0.001
2765 2766 2966 1e-08 0.001
2766 2967 2966 1e-08 0.001
2766 2767 2968 1e-08 0.001
2766 2968 2967 1e-08 0.001
2767 2768 2968 1e-08 0.001
2768 2969 2968 1e-08 0.001
2768 2769 2970 1e-08 0.001
2768 2970 2969 1e-08 0.001
2769 2770 2970 1e-08 0.001
2770 2971 2970 1e-08 0.001
2770 2771 2972 1e-08 0.001
2770 2972 2971 1e-08 0.001
2771 2772 2972 1e-08 0.001
2772 2973 2972 1e-08 0.001
2772 2773 2974 1e-08 0.001
2772 2974 2973 1e-08 0.001
2773 2774 2974 1e-08 0.001
2774 2975 2974 1e-08 0.001
2774 2775 2976 1e-08 0.001
2774 2976 2975 1e-08 0.001
2775 2776 2976 1e-08 0.001
2776 2977 2976 1e-08 0.001
2776 2777 2978 1e-08 0.001
2776 2978 2977 1e-08 0.001
2777 2778 2978 1e-08 0.001
2778 2979 2978 1e-08 0.001
2778 2779 2980 1e-08 0.001
2778 2980 2979 1e-08 0.001
2779 2780 2980 1e-08 0.001
2780 2981 2980 1e-08 0.001
2780 2781 2982 1e-08 0.001
2780 2982 2981 1e-08 0.001
2781 2782 2982 1e-08 0.001
2782 2983 2982 1e-08 0.001
2782 2783 2984 1e-08 0.001
2782 2984 2983 1e-08 0.001
2783 2784 2984 1e-08 0.001
2784 2985 2984 1e-08 0.001
2784 2785 2986 1e-08 0.001
2784 2986 2985 1e-08 0.001
2785 2786 2986 1e-08 0.001
2786 2987 2986 1e-08 0.001
2786 2787 2988 1e-08 0.001
2786 2988 2987 1e-08 0.001
2787 2788 2988 1e-08 0.001
2788 2989 2988 1e-08 0.001
2788 2789 2990 1e-08 0.001
2788 2990 2989 1e-08 0.001
2789 2790 2990 1e-08 0.001
2790 2991 2990 1e-08 0.001
2790 2791 2992 1e-08 0.001
2790 2992 2991 1e-08 0.001
2791 2792 2992 1e-08 0.001
2792 2993 2992 1e-08 0.001
2792 2793 2994 1e-08 0.001
2792 2994 2993 1e-08 0.001
2793 2794 2994 1e-08 0.001
2794 2995 2994 1e-08 0.001
2794 2795 2996 1e-08 0.001
2794 2996 2995 1e-08 0.001
2795 2796 2996 1e-08 0.001
2796 2997 2996 1e-08 0.001
2796 2797 2998 1e-08 0.001
2796 2998 2997 1e-08 0.001
2797 2798 2998 1e-08 0.001
2798 2999 2998 1e-08 0.001
2798 2799 3000 1e-08 0.001
2798 3000 2999 1e-08 0.001
2799 2800 3000 1e-08 0.001
2800 3001 3000 1e-08 0.001
2800 2801 3002 1e-08 0.001
2800 3002 3001 1e-08 0.001
2801 2802 3002 1e-08 0.001
2802 3003 3002 1e-08 0.001
2802 2803 3004 1e-08 0.001
2802 3004 3003 1e-08 0.001
2803 2804 3004 1e-08 0.001
2804 3005 3004 1e-08 0.001
2804 2805 3006 1e-08 0.001
2804 3006 3005 1e-08 0.001
2805 2806 3006 1e-08 0.001
2806 3007 3006 1e-08 0.001
2806 2807 3008 1e-08 0.001
2806 3008 3007 1e-08 0.001
2807 2808 3008 1e-08 0.001
2808 3009 3008 1e-08 0.001
2808 2809 3010 1e-08 0.001
2808 3010 3009 1e-08 0.001
2809 2810 3010 1e-08 0.001
2810 3011 3010 1e-08 0.001
2810 2811 3012 1e-08 0.001
2810 3012 3011 1e-08 0.001
2811 2812 3012 1e-08 0.001
2812 3013 3012 1e-08 0.001
2812 2813 3014 1e-08 0.001
2812 3014 3013 1e-08 0.001
2814 2815 3016 1e-08 0.005
2814 3016 3015 1e-08 0.005
2815 2816 3016 1e-08 0.005
2816 3017 3016 1e-08 0.005
2816 2817 3018 1e-08 0.005
2816 3018 3017 1e-08 0.005
2817 2818 3018 1e-08 0.005
2818 3019 3018 1e-08 0.005
2818 2819 3020 1e-08 0.005
2818 3020 3019 1e-08 0.005
2819 2820 3020 1e-08 0.005
2820 3021 3020 1e-08 0.005
2820 2821 3022 1e-08 0.005
2820 3022 3021 1e-08 0.005
2821 2822 3022 1e-08 0.005
2822 3023 3022 1e-08 0.005
2822 2823 3024 1e-08 0.005
2822 3024 3023 1e-08 0.005
2823 2824 3024 1e-08 0.005
2824 3025 3024 1e-08 0.005
2824 2825 3026 1e-08 0.005
2824 3026 3025 1e-08 0.005
2825 2826 3026 1e-08 0.005
2826 3027 3026 1e-08 0.005
2826 2827 3028 1e-08 0.005
2826 3028 3027 1e-08 0.005
2827 2828 3028 1e-08 0.005
2828 3029 3028 1e-08 0.005
2828 2829 3030 1e-08 0.005
2828 3030 3029 1e-08 0.005
2829 2830 3030 1e-08 0.005
2830 3031 3030 1e-08 0.005
2830 2831 3032 1e-08 0.005
2830 3032 3031 1e-08 0.005
2831 2832 3032 1e-08 0.005
2832 3033 3032 1e-08 0.005
2832 2833 3034 1e-08 0.005
2832 3034 3033 1e-08 0.005
2833 2834 3034 1e-08 0.005
2834 3035 3034 1e-08 0.005
2834 2835 3036 1e-08 0.005
2834 3036 3035 1e-08 0.005
2835 2836 3036 1e-08 0.005
2836 3037 3036 1e-08 0.005
2836 2837 3038 1e-08 0.005
2836 3038 3037 1e-08 0.005
2837 2838 3038 1e-08 0.005
2838 3039 3038 1e-08 0.005
2838 2839 3040 1e-08 0.005
2838 3040 3039 1e-08 0.005
2839 2840 3040 1e-08 0.005
2840 3041 3040 1e-08 0.005
2840 2841 3042 1e-08 0.005
2840 3042 3041 1e-08 0.005
2841 2842 3042 1e-08 0.005
2842 3043 3042 1e-08 0.005
2842 2843 3044 1e-08 0.005
2842 3044 3043 1e-08 0.005
2843 2844 3044 1e-08 0.005
2844 3045 3044 1e-08 0.005
2844 2845 3046 1e-08 0.005
2844 3046 3045 1e-08 0.005
2845 2846 3046 1e-08 0.005
2846 3047 3046 1e-08 0.005
2846 2847 3048 1e-08 0.005
2846 3048 3047 1e-08 0.005
2847 2848 3048 1e-08 0.005
2848 3049 3048 1e-08 0.005
2848 2849 3050 1e-08 0.005
2848 3050 3049 1e-08 0.005
2849 2850 3050 1e-08 0.005
2850 3051 3050 1e-08 0.005
2850 2851 3052 1e-08 0.005
2850 3052 3051 1e-08 0.005
2851 2852 3052 1e-08 0.005
2852 3053 3052 1e-08 0.005
2852 2853 3054 1e-08 0.005
2852 3054 3053 1e-08 0.005
2853 2854 3054 1e-08 0.005
2854 3055 3054 1e-08 0.005
2854 2855 3056 1e-08 0.005
2854 3056 3055 1e-08 0.005
2855 2856 3056 1e-08 0.005
2856 3057 3056 1e-08 0.005
2856 2857 3058 1e-08 0.005
2856 3058 3057 1e-08 0.005
2857 2858 3058 1e-08 0.005
2858 3059 3058 1e-08 0.005
2858 2859 3060 1e-08 0.005
2858 3060 3059 1e-08 0.005
2859 2860 3060 1e-08 0.005
2860 3061 3060 1e-08 0.005
2860 2861 3062 1e-08 0.005
2860 3062 3061 1e-08 0.005
2861 2862 3062 1e-08 0.005
2862 3063 3062 1e-08 0.005
2862 2863 3064 1e-08 0.005
2862 3064 3063 1e-08 0.005
2863 2864 3064 1e-08 0.005
2864 3065 3064 1e-08 0.005
2864 2865 3066 1e-08 0.005
2864 3066 3065 1e-08 0.005
2865 2866 3066 1e-08 0.005
2866 3067 3066 1e-08 0.005
2866 2867 3068 1e-08 0.005
2866 3068 3067 1e-08 0.005
2867 2868 3068 1e-08 0.005
2868 3069 3068 1e-08 0.005
2868 2869 3070 1e-08 0.005
2868 3070 3069 1e-08 0.005
2869 2870 3070 1e-08 0.005
2870 3071 3070 1e-08 0.005
2870 2871 3072 1e-08 0.005
2870 3072 3071 1e-08 0.005
2871 2872 3072 1e-08 0.005
2872 3073 3072 1e-08 0.005
2872 2873 3074 1e-08 0.005
2872 3074 3073 1e-08 0.005
2873 2874 3074 1e-08 0.005
2874 3075 3074 1e-08 0.005
2874 2875 3076 1e-08 0.005
2874 3076 3075 1e-08 0.005
2875 2876 3076 1e-08 0.005
2876 3077 3076 1e-08 0.005
2876 2877 3078 1e-08 0.005
2876 3078 3077 1e-08 0.005
2877 2878 3078 1e-08 0.005
2878 3079 3078 1e-08 0.005
2878 2879 3080 1e-08 0.005
2878 3080 3079 1e-08 0.005
2879 2880 3080 1e-08 0.005
2880 3081 3080 1e-08 0.005
2880 2881 3082 1e-08 0.005
2880 3082 3081 1e-08 0.005
2881 2882 3082 1e-08 0.005
2882 3083 3082 1e-08 0.005
2882 2883 3084 1e-08 0.005
2882 3084 3083 1e-08 0.005
2883 2884 3084 1e-08 0.005
2884 3085 3084 1e-08 0.005
2884 2885 3086 1e-08 0.005
2884 3086 3085 1e-08 0.005
2885 2886 3086 1e-08 0.005
2886 3087 3086 1e-08 0.005
2886 2887 3088 1e-08 0.005
2886 3088 3087 1e-08 0.005
2887 2888 3088 1e-08 0.005
2888 3089 3088 1e-08 0.005
2888 2889 3090 1e-08 0.005
2888 3090 3089 1e-08 0.005
2889 2890 3090 1e-08 0.005
2890 3091 3090 1e-08 0.005
2890 2891 3092 1e-08 0.005
2890 3092 3091 1e-08 0.005
2891 2892 3092 1e-08 0.005
2892 3093 3092 1e-08 0.005
2892 2893 3094 1e-08 0.005
2892 3094 3093 1e-08 0.005
2893 2894 3094 1e-08 0.005
2894 3095 3094 1e-08 0.005
2894 2895 3096 1e-08 0.005
2894 3096 3095 1e-08 0.005
2895 2896 3096 1e-08 0.005
2896 3097 3096 1e-08 0.005
2896 2897 3098 1e-08 0.005
2896 3098 3097 1e-08 0.005
2897 2898 3098 1e-08 0.005
2898 3099 3098 1e-08 0.005
2898 2899 3100 1e-08 0.005
2898 3100 3099 1e-08 0.005
2899 2900 3100 1e-08 0.005
2900 3101 3100 1e-08 0.005
2900 2901 3102 1e-08 0.005
2900 3102 3101 1e-08 0.005
2901 2902 3102 1e-08 0.005
2902 3103 3102 1e-08 0.005
2902 2903 3104 1e-08 0.005
2902 3104 3103 1e-08 0.005
2903 2904 3104 1e-08 0.005
2904 3105 3104 1e-08 0.005
2904 2905 3106 1e-08 0.005
2904 3106 3105 1e-08 0.005
2905 2906 3106 1e-08 0.005
2906 3107 3106 1e-08 0.005
2906 2907 3108 1e-08 0.005
2906 3108 3107 1e-08 0.005
2907 2908 3108 1e-08 0.005
2908 3109 3108 1e-08 0.005
2908 2909 3110 1e-08 0.005
2908 3110 3109 1e-08 0.005
2909 2910 3110 1e-08 0.005
2910 3111 3110 1e-08 0.005
2910 2911 3112 1e-08 0.005
2910 3112 3111 1e-08 0.005
2911 2912 3112 1e-08 0.005
2912 3113 3112 1e-08 0.005
2912 2913 3114 1e-08 0.005
2912 3114 3113 1e-08 0.005
2913 2914 3114 1e-08 0.005
2914 3115 3114 1e-08 0.005
2914 2915 3116 1e-08 0.001
2914 3116 3115 1e-08 0.001
2915 2916 3116 1e-08 0.001
2916 3117 3116 1e-08 0.001
2916 2917 3118 1e-08 0.001
2916 3118 3117 1e-08 0.001
2917 2918 3118 1e-08 0.001
2918 3119 3118 1e-08 0.001
2918 2919 3120 1e-08 0.001
2918 3120 3119 1e-08 0.001
2919 2920 3120 1e-08 0.001
2920 3121 3120 1e-08 0.001
2920 2921 3122 1e-08 0.001
2920 3122 3121 1e-08 0.001
2921 2922 3122 1e-08 0.001
2922 3123 3122 1e-08 0.001
2922 2923 3124 1e-08 0.001
2922 3124 3123 1e-08 0.001
2923 2924 3124 1e-08 0.001
2924 3125 3124 1e-08 0.001
2924 2925 3126 1e-08 0.001
2924 3126 3125 1e-08 0.001
2925 2926 3126 1e-08 0.001
2926 3127 3126 1e-08 0.001
2926 2927 3128 1e-08 0.001
2926 3128 3127 1e-08 0.001
2927 2928 3128 1e-08 0.001
2928 3129 3128 1e-08 0.001
2928 2929 3130 1e-08 0.001
2928 3130 3129 1e-08 0.001
2929 2930 3130 1e-08 0.001
2930 3131 3130 1e-08 0.001
2930 2931 3132 1e-08 0.001
2930 3132 3131 1e-08 0.001
2931 2932 3132 1e-08 0.001
2932 3133 3132 1e-08 0.001
2932 2933 3134 1e-08 0.001
2932 3134 3133 1e-08 0.001
2933 2934 3134 1e-08 0.001
2934 3135 3134 1e-08 0.001
2934 2935 3136 1e-08 0.001
2934 3136 3135 1e-08 0.001
2935 2936 3136 1e-08 0.001
2936 3137 3136 1e-08 0.001
2936 2937 3138 1e-08 0.001
2936 3138 3137 1e-08 0.001
2937 2938 3138 1e-08 0.001
2938 3139 3138 1e-08 0.001
2938 2939 3140 1e-08 0.001
2938 3140 3139 1e-08 0.001
2939 2940 3140 1e-08 0.001
2940 3141 3140 1e-08 0.001
2940 2941 3142 1e-08 0.001
2940 3142 3141 1e-08 0.001
2941 2942 3142 1e-08 0.001
2942 3143 3142 1e-08 0.001
2942 2943 3144 1e-08 0.001
2942 3144 3143 1e-08 0.001
2943 2944 3144 1e-08 0.001
2944 3145 3144 1e-08 0.001
2944 2945 3146 1e-08 0.001
2944 3146 3145 1e-08 0.001
2945 2946 3146 1e-08 0.001
2946 3147 3146 1e-08 0.001
2946 2947 3148 1e-08 0.001
2946 3148 3147 1e-08 0.001
2947 2948 3148 1e-08 0.001
2948 3149 3148 1e-08 0.001
2948 2949 3150 1e-08 0.001
2948 3150 3149 1e-08 0.001
2949 2950 3150 1e-08 0.001
2950 3151 3150 1e-08 0.001
2950 2951 3152 1e-08 0.001
2950 3152 3151 1e-08 0.001
2951 2952 3152 1e-08 0.001
2952 3153 3152 1e-08 0.001
2952 2953 3154 1e-08 0.001
2952 3154 3153 1e-08 0.001
2953 2954 3154 1e-08 0.001
2954 3155 3154 1e-08 0.001
2954 2955 3156 1e-08 0.001
2954 3156 3155 1e-08 0.001
2955 2956 3156 1e-08 0.001
2956 3157 3156 1e-08 0.001
2956 2957 3158 1e-08 0.001
2956 3158 3157 1e-08 0.001
2957 2958 3158 1e-08 0.001
2958 3159 3158 1e-08 0.001
2958 2959 3160 1e-08 0.001
2958 3160 3159 1e-08 0.001
2959 2960 3160 1e-08 0.001
2960 3161 3160 1e-08 0.001
2960 2961 3162 1e-08 0.001
2960 3162 3161 1e-08 0.001
2961 2962 3162 1e-08 0.001
2962 3163 3162 1e-08 0.001
2962 2963 3164 1e-08 0.001
2962 3164 3163 1e-08 0.001
2963 2964 3164 1e-08 0.001
2964 3165 3164 1e-08 0.001
2964 2965 3166 1e-08 0.001
2964 3166 3165 1e-08 0.001
2965 2966 3166 1e-08 0.001
2966 3167 3166 1e-08 0.001
2966 2967 3168 1e-08 0.001
2966 3168 3167 1e-08 0.001
2967 2968 3168 1e-08 0.001
2968 3169 3168 1e-08 0.001
2968 2969 3170 1e-08 0.001
2968 3170 3169 1e-08 0.001
2969 2970 3170 1e-08 0.001
2970 3171 3170 1e-08 0.001
2970 2971 3172 1e-08 0.001
2970 3172 3171 1e-08 0.001
2971 2972 3172 1e-08 0.001
2972 3173 3172 1e-08 0.001
2972 2973 3174 1e-08 0.001
2972 3174 3173 1e-08 0.001
2973 2974 3174 1e-08 0.001
2974 3175 3174 1e-08 0.001
2974 2975 3176 1e-08 0.001
2974 3176 3175 1e-08 0.001
2975 2976 3176 1e-08 0.001
2976 3177 3176 1e-08 0.001
2976 2977 3178 1e-08 0.001
2976 3178 3177 1e-08 0.001
2977 2978 3178 1e-08 0.001
2978 3179 3178 1e-08 0.001
2978 2979 3180 1e-08 0.001
2978 3180 3179 1e-08 0.001
2979 2980 3180 1e-08 0.001
2980 3181 3180 1e-08 0.001
2980 2981 3182 1e-08 0.001
2980 3182 3181 1e-08 0.001
2981 2982 3182 1e-08 0.001
2982 3183 3182 1e-08 0.001
2982 2983 3184 1e-08 0.001
2982 3184 3183 1e-08 0.001
2983 2984 3184 1e-08 0.001
2984 3185 3184 1e-08 0.001
2984 2985 3186 1e-08 0.001
2984 3186 3185 1e-08 0.001
2985 2986 3186 1e-08 0.001
2986 3187 3186 1e-08 0.001
2986 2987 3188 1e-08 0.001
2986 3188 3187 1e-08 0.001
2987 2988 3188 1e-08 0.001
2988 3189 3188 1e-08 0.001
2988 2989 3190 1e-08 0.001
2988 3190 3189 1e-08 0.001
2989 2990 3190 1e-08 0.001
2990 3191 3190 1e-08 0.001
2990 2991 3192 1e-08 0.001
2990 3192 3191 1e-08 0.001
2991 2992 3192 1e-08 0.001
2992 3193 3192 1e-08 0.001
2992 2993 3194 1e-08 0.001
2992 3194 3193 1e-08 0.001
2993 2994 3194 1e-08 0.001
2994 3195 3194 1e-08 0.001
2994 2995 3196 1e-08 0.001
2994 3196 3195 1e-08 0.001
2995 2996 3196 1e-08 0.001
2996 3197 3196 1e-08 0.001
2996 2997 3198 1e-08 0.001
2996 3198 3197 1e-08 0.001
2997 2998 3198 1e-08 0.001
2998 3199 3198 1e-08 0.001
2998 2999 3200 1e-08 0.001
2998 3200 3199 1e-08 0.001
2999 3000 3200 1e-08 0.001
3000 3201 3200 1e-08 0.001
3000 3001 3202 1e-08 0.001
3000 3202 3201 1e-08 0.001
3001 3002 3202 1e-08 0.001
3002 3203 3202 1e-08 0.001
3002 3003 3204 1e-08 0.001
3002 3204 3203 1e-08 0.001
3003 3004 3204 1e-08 0.001
3004 3205 3204 1e-08 0.001
3004 3005 3206 1e-08 0.001
3004 3206 3205 1e-08 0.001
3005 3006 3206 1e-08 0.001
3006 3207 3206 1e-08 0.001
3006 3007 3208 1e-08 0.001
3006 3208 3207 1e-08 0.001
3007 3008 3208 1e-08 0.001
3008 3209 3208 1e-08 0.001
3008 3009 3210 1e-08 0.001
3008 3210 3209 1e-08 0.001
3009 3010 3210 1e-08 0.001
3010 3211 3210 1e-08 0.001
3010 3011 3212 1e-08 0.001
3010 3212 3211 1e-08 0.001
3011 3012 3212 1e-08 0.001
3012 3213 3212 1e-08 0.001
3012 3013 3214 1e-08 0.001
3012 3214 3213 1e-08 0.001
3013 3014 3214 1e-08 0.001
3014 3215 3214 1e-08 0.001
3015 3016 3216 1e-08 0.005
3016 3217 3216 1e-08 0.005
3016 3017 3218 1e-08 0.005
3016 3218 3217 1e-08 0.005
3017 3018 3218 1e-08 0.005
3018 3219 3218 1e-08 0.005
3018 3019 3220 1e-08 0.005
3018 3220 3219 1e-08 0.005
3019 3020 3220 1e-08 0.005
3020 3221 3220 1e-08 0.005
3020 3021 3222 1e-08 0.005
3020 3222 3221 1e-08 0.005
3021 3022 3222 1e-08 0.005
3022 3223 3222 1e-08 0.005
3022 3023 3224 1e-08 0.005
3022 3224 3223 1e-08 0.005
3023 3024 3224 1e-08 0.005
3024 3225 3224 1e-08 0.005
3024 3025 3226 1e-08 0.005
3024 3226 3225 1e-08 0.005
3025 3026 3226 1e-08 0.005
3026 3227 3226 1e-08 0.005
3026 3027 3228 1e-08 0.005
3026 3228 3227 1e-08 0.005
3027 3028 3228 1e-08 0.005
3028 3229 3228 1e-08 0.005
3028 3029 3230 1e-08 0.005
3028 3230 3229 1e-08 0.005
3029 3030 3230 1e-08 0.005
3030 3231 3230 1e-08 0.005
3030 3031 3232 1e-08 0.005
3030 3232 3231 1e-08 0.005
3031 3032 3232 1e-08 0.005
3032 3233 3232 1e-08 0.005
3032 3033 3234 1e-08 0.005
3032 3234 3233 1e-08 0.005
3033 3034 3234 1e-08 0.005
3034 3235 3234 1e-08 0.005
3034 3035 3236 1e-08 0.005
3034 3236 3235 1e-08 0.005
3035 3036 3236 1e-08 0.005
3036 3237 3236 1e-08 0.005
3036 3037 3238 1e-08 0.005
3036 3238 3237 1e-08 0.005
3037 3038 3238 1e-08 0.005
3038 3239 3238 1e-08 0.005
3038 3039 3240 1e-08 0.005
3038 3240 3239 1e-08 0.005
3039 3040 3240 1e-08 0.005
3040 3241 3240 1e-08 0.005
3040 3041 3242 1e-08 0.005
3040 3242 3241 1e-08 0.005
3041 3042 3242 1e-08 0.005
3042 3243 3242 1e-08 0.005
3042 3043 3244 1e-08 0.005
3042 3244 3243 1e-08 0.005
3043 3044 3244 1e-08 0.005
3044 3245 3244 1e-08 0.005
3044 3045 3246 1e-08 0.005
3044 3246 3245 1e-08 0.005
3045 3046 3246 1e-08 0.005
3046 3247 3246 1e-08 0.005
3046 3047 3248 1e-08 0.005
3046 3248 3247 1e-08 0.005
3047 3048 3248 1e-08 0.005
3048 3249 3248 1e-08 0.005
3048 3049 3250 1e-08 0.005
3048 3250 3249 1e-08 0.005
3049 3050 3250 1e-08 0.005
3050 3251 3250 1e-08 0.005
3050 3051 3252 1e-08 0.005
3050 3252 3251 1e-08 0.005
3051 3052 3252 1e-08 0.005
3052 3253 3252 1e-08 0.005
3052 3053 3254 1e-08 0.005
3052 3254 3253 1e-08 0.005
3053 3054 3254 1e-08 0.005
3054 3255 3254 1e-08 0.005
3054 3055 3256 1e-08 0.005
3054 3256 3255 1e-08 0.005
3055 3056 3256 1e-08 0.005
3056 3257 3256 1e-08 0.005
3056 3057 3258 1e-08 0.005
3056 3258 3257 1e-08 0.005
3057 3058 3258 1e-08 0.005
3058 3259 3258 1e-08 0.005
3058 3059 3260 1e-08 0.005
3058 3260 3259 1e-08 0.005
3059 3060 3260 1e-08 0.005
3060 3261 3260 1e-08 0.005
3060 3061 3262 1e-08 0.005
3060 3262 3261 1e-08 0.005
3061 3062 3262 1e-08 0.005
3062 3263 3262 1e-08 0.005
3062 3063 3264 1e-08 0.005
3062 3264 3263 1e-08 0.005
3063 3064 3264 1e-08 0.005
3064 3265 3264 1e-08 0.005
3064 3065 3266 1e-08 0.005
3064 3266 3265 1e-08 0.005
3065 3066 3266 1e-08 0.005
3066 3267 3266 1e-08 0.005
3066 3067 3268 1e-08 0.005
3066 3268 3267 1e-08 0.005
3067 3068 3268 1e-08 0.005
3068 3269 3268 1e-08 0.005
3068 3069 3270 1e-08 0.005
3068 3270 3269 1e-08 0.005
3069 3070 3270 1e-08 0.005
3070 3271 3270 1e-08 0.005
3070 3071 3272 1e-08 0.005
3070 3272 3271 1e-08 0.005
3071 3072 3272 1e-08 0.005
3072 3273 3272 1e-08 0.005
3072 3073 3274 1e-08 0.005
3072 3274 3273 1e-08 0.005
3073 3074 3274 1e-08 0.005
3074 3275 3274 1e-08 0.005
3074 3075 3276 1e-08 0.005
3074 3276 3275 1e-08 0.005
3075 3076 3276 1e-08 0.005
3076 3277 3276 1e-08 0.005
3076 3077 3278 1e-08 0.005
3076 3278 3277 1e-08 0.005
3077 3078 3278 1e-08 0.005
3078 3279 3278 1e-08 0.005
3078 3079 3280 1e-08 0.005
3078 3280 3279 1e-08 0.005
3079 3080 3280 1e-08 0.005
3080 3281 3280 1e-08 0.005
3080 3081 3282 1e-08 0.005
3080 3282 3281 1e-08 0.005
3081 3082 3282 1e-08 0.005
3082 3283 3282 1e-08 0.005
3082 3083 3284 1e-08 0.005
3082 3284 3283 1e-08 0.005
3083 3084 3284 1e-08 0.005
3084 3285 3284 1e-08 0.005
3084 3085 3286 1e-08 0.005
3084 3286 3285 1e-08 0.005
3085 3086 3286 1e-08 0.005
3086 3287 3286 1e-08 0.005
3086 3087 3288 1e-08 0.005
3086 3288 3287 1e-08 0.005
3087 3088 3288 1e-08 0.005
3088 3289 3288 1e-08 0.005
3088 3089 3290 1e-08 0.005
3088 3290 3289 1e-08 0.005
3089 3090 3290 1e-08 0.005
3090 3291 3290 1e-08 0.005
3090 3091 3292 1e-08 0.005
3090 3292 3291 1e-08 0.005
3091 3092 3292 1e-08 0.005
3092 3293 3292 1e-08 0.005
3092 3093 3294 1e-08 0.005
3092 3294 3293 1e-08 0.005
3093 3094 3294 1e-08 0.005
3094 3295 3294 1e-08 0.005
3094 3095 3296 1e-08 0.005
3094 3296 3295 1e-08 0.005
3095 3096 3296 1e-08 0.005
3096 3297 3296 1e-08 0.005
3096 3097 3298 1e-08 0.005
3096 3298 3297 1e-08 0.005
3097 3098 3298 1e-08 0.005
3098 3299 3298 1e-08 0.005
3098 3099 3300 1e-08 0.005
3098 3300 3299 1e-08 0.005
3099 3100 3300 1e-08 0.005
3100 3301 3300 1e-08 0.005
3100 3101 3302 1e-08 0.005
3100 3302 3301 1e-08 0.005
3101 3102 3302 1e-08 0.005
3102 3303 3302 1e-08 0.005
3102 3103 3304 1e-08 0.005
3102 3304 3303 1e-08 0.005
3103 3104 3304 1e-08 0.005
3104 3305 3304 1e-08 0.005
3104 3105 3306 1e-08 0.005
3104 3306 3305 1e-08 0.005
3105 3106 3306 1e-08 0.005
3106 3307 3306 1e-08 0.005
3106 3107 3308 1e-08 0.005
3106 3308 3307 1e-08 0.005
3107 3108 3308 1e-08 0.005
3108 3309 3308 1e-08 0.005
3108 3109 3310 1e-08 0.005
3108 3310 3309 1e-08 0.005
3109 3110 3310 1e-08 0.005
3110 3311 3310 1e-08 0.005
3110 3111 3312 1e-08 0.005
3110 3312 3311 1e-08 0.005
3111 3112 3312 1e-08 0.005
3112 3313 3312 1e-08 0.005
3112 3113 3314 1e-08 0.005
3112 3314 3313 1e-08 0.005
3113 3114 3314 1e-08 0.005
3114 3315 3314 1e-08 0.005
3114 3115 3316 1e-08 0.005
3114 3316 3315 1e-08 0.005
3115 3116 3316 1e-08 0.001
3116 3317 3316 1e-08 0.001
3116 3117 3318 1e-08 0.001
3116 3318 3317 1e-08 0.001
3117 3118 3318 1e-08 0.001
3118 3319 3318 1e-08 0.001
3118 3119 3320 1e-08 0.001
3118 3320 3319 1e-08 0.001
3119 3120 3320 1e-08 0.001
3120 3321 3320 1e-08 0.001
3120 3121 3322 1e-08 0.001
3120 3322 3321 1e-08 0.001
3121 3122 3322 1e-08 0.001
3122 3323 3322 1e-08 0.001
3122 3123 3324 1e-08 0.001
3122 3324 3323 1e-08 0.001
3123 3124 3324 1e-08 0.001
3124 3325 3324 1e-08 0.001
3124 3125 3326 1e-08 0.001
3124 3326 3325 1e-08 0.001
3125 3126 3326 1e-08 0.001
3126 3327 3326 1e-08 0.001
3126 3127 3328 1e-08 0.001
3126 3328 3327 1e-08 0.001
3127 3128 3328 1e-08 0.001
3128 3329 3328 1e-08 0.001
3128 3129 3330 1e-08 0.001
3128 3330 3329 1e-08 0.001
3129 3130 3330 1e-08 0.001
3130 3331 3330 1e-08 0.001
3130 3131 3332 1e-08 0.001
3130 3332 3331 1e-08 0.001
3131 3132 3332 1e-08 0.001
3132 3333 3332 1e-08 0.001
3132 3133 3334 1e-08 0.001
3132 3334 3333 1e-08 0.001
3133 3134 3334 1e-08 0.001
3134 3335 3334 1e-08 0.001
3134 3135 3336 1e-08 0.001
3134 3336 3335 1e-08 0.001
3135 3136 3336 1e-08 0.001
3136 3337 3336 1e-08 0.001
3136 3137 3338 1e-08 0.001
3136 3338 3337 1e-08 0.001
3137 3138 3338 1e-08 0.001
3138 3339 3338 1e-08 0.001
3138 3139 3340 1e-08 0.001
3138 3340 3339 1e-08 0.001
3139 3140 3340 1e-08 0.001
3140 3341 3340 1e-08 0.001
3140 3141 3342 1e-08 0.001
3140 3342 3341 1e-08 0.001
3141 3142 3342 1e-08 0.001
3142 3343 3342 1e-08 0.001
3142 3143 3344 1e-08 0.001
3142 3344 3343 1e-08 0.001
3143 3144 3344 1e-08 0.001
3144 3345 3344 1e-08 0.001
3144 3145 3346 1e-08 0.001
3144 3346 3345 1e-08 0.001
3145 3146 3346 1e-08 0.001
3146 3347 3346 1e-08 0.001
3146 3147 3348 1e-08 0.001
3146 3348 3347 1e-08 0.001
3147 3148 3348 1e-08 0.001
3148 3349 3348 1e-08 0.001
3148 3149 3350 1e-08 0.001
3148 3350 3349 1e-08 0.001
3149 3150 3350 1e-08 0.001
3150 3351 3350 1e-08 0.001
3150 3151 3352 1e-08 0.001
3150 3352 3351 1e-08 0.001
3151 3152 3352 1e-08 0.001
3152 3353 3352 1e-08 0.001
3152 3153 3354 1e-08 0.001
3152 3354 3353 1e-08 0.001
3153 3154 3354 1e-08 0.001
3154 3355 3354 1e-08 0.001
3154 3155 3356 1e-08 0.001
3154 3356 3355 1e-08 0.001
3155 3156 3356 1e-08 0.001
3156 3357 3356 1e-08 0.001
3156 3157 3358 1e-08 0.001
3156 3358 3357 1e-08 0.001
3157 3158 3358 1e-08 0.001
3158 3359 3358 1e-08 0.001
3158 3159 3360 1e-08 0.001
3158 3360 3359 1e-08 0.001
3159 3160 3360 1e-08 0.001
3160 3361 3360 1e-08 0.001
3160 3161 3362 1e-08 0.001
3160 3362 3361 1e-08 0.001
3161 3162 3362 1e-08 0.001
3162 3363 3362 1e-08 0.001
3162 3163 3364 1e-08 0.001
3162 3364 3363 1e-08 0.001
3163 3164 3364 1e-08 0.001
3164 3365 3364 1e-08 0.001
3164 3165 3366 1e-08 0.001
3164 3366 3365 1e-08 0.001
3165 3166 3366 1e-08 0.001
3166 3367 3366 1e-08 0.001
3166 3167 3368 1e-08 0.001
3166 3368 3367 1e-08 0.001
3167 3168 3368 1e-08 0.001
3168 3369 3368 1e-08 0.001
3168 3169 3370 1e-08 0.001
3168 3370 3369 1e-08 0.001
3169 3170 3370 1e-08 0.001
3170 3371 3370 1e-08 0.001
3170 3171 3372 1e-08 0.001
3170 3372 3371 1e-08 0.001
3171 3172 3372 1e-08 0.001
3172 3373 3372 1e-08 0.001
3172 3173 3374 1e-08 0.001
3172 3374 3373 1e-08 0.001
3173 3174 3374 1e-08 0.001
3174 3375 3374 1e-08 0.001
3174 3175 3376 1e-08 0.001
3174 3376 3375 1e-08 0.001
3175 3176 3376 1e-08 0.001
3176 3377 3376 1e-08 0.001
3176 3177 3378 1e-08 0.001
3176 3378 3377 1e-08 0.001
3177 3178 3378 1e-08 0.001
3178 3379 3378 1e-08 0.001
3178 3179 3380 1e-08 0.001
3178 3380 3379 1e-08 0.001
3179 3180 3380 1e-08 0.001
3180 3381 3380 1e-08 0.001
3180 3181 3382 1e-08 0.001
3180 3382 3381 1e-08 0.001
3181 3182 3382 1e-08 0.001
3182 3383 3382 1e-08 0.001
3182 3183 3384 1e-08 0.001
3182 3384 3383 1e-08 0.001
3183 3184 3384 1e-08 0.001
3184 3385 3384 1e-08 0.001
3184 3185 3386 1e-08 0.001
3184 3386 3385 1e-08 0.001
3185 3186 3386 1e-08 0.001
3186 3387 3386 1e-08 0.001
3186 3187 3388 1e-08 0.001
3186 3388 3387 1e-08 0.001
3187 3188 3388 1e-08 0.001
3188 3389 3388 1e-08 0.001
3188 3189 3390 1e-08 0.001
3188 3390 3389 1e-08 0.001
3189 3190 3390 1e-08 0.001
3190 3391 3390 1e-08 0.001
3190 3191 3392 1e-08 0.001
3190 3392 3391 1e-08 0.001
3191 3192 3392 1e-08 0.001
3192 3393 3392 1e-08 0.001
3192 3193 3394 1e-08 0.001
3192 3394 3393 1e-08 0.001
3193 3194 3394 1e-08 0.001
3194 3395 3394 1e-08 0.001
3194 3195 3396 1e-08 0.001
3194 3396 3395 1e-08 0.001
3195 3196 3396 1e-08 0.001
3196 3397 3396 1e-08 0.001
3196 3197 3398 1e-08 0.001
3196 3398 3397 1e-08 0.001
3197 3198 3398 1e-08 0.001
3198 3399 3398 1e-08 0.001
3198 3199 3400 1e-08 0.001
3198 3400 3399 1e-08 0.001
3199 3200 3400 1e-08 0.001
3200 3401 3400 1e-08 0.001
3200 3201 3402 1e-08 0.001
3200 3402 3401 1e-08 0.001
3201 3202 3402 1e-08 0.001
3202 3403 3402 1e-08 0.001
3202 3203 3404 1e-08 0.001
3202 3404 3403 1e-08 0.001
3203 3204 3404 1e-08 0.001
3204 3405 3404 1e-08 0.001
3204 3205 3406 1e-08 0.001
3204 3406 3405 1e-08 0.001
3205 3206 3406 1e-08 0.001
3206 3407 3406 1e-08 0.001
3206 3207 3408 1e-08 0.001
3206 3408 3407 1e-08 0.001
3207 3208 3408 1e-08 0.001
3208 3409 3408 1e-08 0.001
3208 3209 3410 1e-08 0.001
3208 3410 3409 1e-08 0.001
3209 3210 3410 1e-08 0.001
3210 3411 3410 1e-08 0.001
3210 3211 3412 1e-08 0.001
3210 3412 3411 1e-08 0.001
3211 3212 3412 1e-08 0.001
3212 3413 3412 1e-08 0.001
3212 3213 3414 1e-08 0.001
3212 3414 3413 1e-08 0.001
3213 3214 3414 1e-08 0.001
3214 3415 3414 1e-08 0.001
3214 3215 3416 1e-08 0.001
3214 3416 3415 1e-08 0.001
3216 3217 3418 1e-08 0.005
3216 3418 3417 1e-08 0.005
3217 3218 3418 1e-08 0.005
3218 3419 3418 1e-08 0.005
3218 3219 3420 1e-08 0.005
3218 3420 3419 1e-08 0.005
3219 3220 3420 1e-08 0.005
3220 3421 3420 1e-08 0.005
3220 3221 3422 1e-08 0.005
3220 3422 3421 1e-08 0.005
3221 3222 3422 1e-08 0.005
3222 3423 3422 1e-08 0.005
3222 3223 3424 1e-08 0.005
3222 3424 3423 1e-08 0.005
3223 3224 3424 1e-08 0.005
3224 3425 3424 1e-08 0.005
3224 3225 3426 1e-08 0.005
3224 3426 3425 1e-08 0.005
3225 3226 3426 1e-08 0.005
3226 3427 3426 1e-08 0.005
3226 3227 3428 1e-08 0.005
3226 3428 3427 1e-08 0.005
3227 3228 3428 1e-08 0.005
3228 3429 3428 1e-08 0.005
3228 3229 3430 1e-08 0.005
3228 3430 3429 1e-08 0.005
3229 3230 3430 1e-08 0.005
3230 3431 3430 1e-08 0.005
3230 3231 3432 1e-08 0.005
3230 3432 3431 1e-08 0.005
3231 3232 3432 1e-08 0.005
3232 3433 3432 1e-08 0.005
3232 3233 3434 1e-08 0.005
3232 3434 3433 1e-08 0.005
3233 3234 3434 1e-08 0.005
3234 3435 3434 1e-08 0.005
3234 3235 3436 1e-08 0.005
3234 3436 3435 1e-08 0.005
3235 3236 3436 1e-08 0.005
3236 3437 3436 1e-08 0.005
3236 3237 3438 1e-08 0.005
3236 3438 3437 1e-08 0.005
3237 3238 3438 1e-08 0.005
3238 3439 3438 1e-08 0.005
3238 3239 3440 1e-08 0.005
3238 3440 3439 1e-08 0.005
3239 3240 3440 1e-08 0.005
3240 3441 3440 1e-08 0.005
3240 3241 3442 1e-08 0.005
3240 3442 3441 1e-08 0.005
3241 3242 3442 1e-08 0.005
3242 3443 3442 1e-08 0.005
3242 3243 3444 1e-08 0.005
3242 3444 3443 1e-08 0.005
3243 3244 3444 1e-08 0.005
3244 3445 3444 1e-08 0.005
3244 3245 3446 1e-08 0.005
3244 3446 3445 1e-08 0.005
3245 3246 3446 1e-08 0.005
3246 3447 3446 1e-08 0.005
3246 3247 3448 1e-08 0.005
3246 3448 3447 1e-08 0.005
3247 3248 3448 1e-08 0.005
3248 3449 3448 1e-08 0.005
3248 3249 3450 1e-08 0.005
3248 3450 3449 1e-08 0.005
3249 3250 3450 1e-08 0.005
3250 3451 3450 1e-08 0.005
3250 3251 3452 1e-08 0.005
3250 3452 3451 1e-08 0.005
3251 3252 3452 1e-08 0.005
3252 3453 3452 1e-08 0.005
3252 3253 3454 1e-08 0.005
3252 3454 3453 1e-08 0.005
3253 3254 3454 1e-08 0.005
3254 3455 3454 1e-08 0.005
3254 3255 3456 1e-08 0.005
3254 3456 3455 1e-08 0.005
3255 3256 3456 1e-08 0.005
3256 3457 3456 1e-08 0.005
3256 3257 3458 1e-08 0.005
3256 3458 3457 1e-08 0.005
3257 3258 3458 1e-08 0.005
3258 3459 3458 1e-08 0.005
3258 3259 3460 1e-08 0.005
3258 3460 3459 1e-08 0.005
3259 3260 3460 1e-08 0.005
3260 3461 3460 1e-08 0.005
3260 3261 3462 1e-08 0.005
3260 3462 3461 1e-08 0.005
3261 3262 3462 1e-08 0.005
3262 3463 3462 1e-08 0.005
3262 3263 3464 1e-08 0.005
3262 3464 3463 1e-08 0.005
3263 3264 3464 1e-08 0.005
3264 3465 3464 1e-08 0.005
3264 3265 3466 1e-08 0.005
3264 3466 3465 1e-08 0.005
3265 3266 3466 1e-08 0.005
3266 3467 3466 1e-08 0.005
3266 3267 3468 1e-08 0.005
3266 3468 3467 1e-08 0.005
3267 3268 3468 1e-08 0.005
3268 3469 3468 1e-08 0.005
3268 3269 3470 1e-08 0.005
3268 3470 3469 1e-08 0.005
3269 3270 3470 1e-08 0.005
3270 3471 3470 1e-08 0.005
3270 3271 3472 1e-08 0.005
3270 3472 3471 1e-08 0.005
3271 3272 3472 1e-08 0.005
3272 3473 3472 1e-08 0.005
3272 3273 3474 1e-08 0.005
3272 3474 3473 1e-08 0.005
3273 3274 3474 1e-08 0.005
3274 3475 3474 1e-08 0.005
3274 3275 3476 1e-08 0.005
3274 3476 3475 1e-08 0.005
3275 3276 3476 1e-08 0.005
3276 3477 3476 1e-08 0.005
3276 3277 3478 1e-08 0.005
3276 3478 3477 1e-08 0.005
3277 3278 3478 1e-08 0.005
3278 3479 3478 1e-08 0.005
3278 3279 3480 1e-08 0.005
3278 3480 3479 1e-08 0.005
3279 3280 3480 1e-08 0.005
3280 3481 3480 1e-08 0.005
3280 3281 3482 1e-08 0.005
3280 3482 3481 1e-08 0.005
3281 3282 3482 1e-08 0.005
3282 3483 3482 1e-08 0.005
3282 3283 3484 1e-08 0.005
3282 3484 3483 1e-08 0.005
3283 3284 3484 1e-08 0.005
3284 3485 3484 1e-08 0.005
3284 3285 3486 1e-08 0.005
3284 3486 3485 1e-08 0.005
3285 3286 3486 1e-08 0.005
3286 3487 3486 1e-08 0.005
3286 3287 3488 1e-08 0.005
3286 3488 3487 1e-08 0.005
3287 3288 3488 1e-08 0.005
3288 3489 3488 1e-08 0.005
3288 3289 3490 1e-08 0.005
3288 3490 3489 1e-08 0.005
3289 3290 3490 1e-08 0.005
3290 3491 3490 1e-08 0.005
3290 3291 3492 1e-08 0.005
3290 3492 3491 1e-08 0.005
3291 3292 3492 1e-08 0.005
3292 3493 3492 1e-08 0.005
3292 3293 3494 1e-08 0.005
3292 3494 3493 1e-08 0.005
3293 3294 3494 1e-08 0.005
3294 3495 3494 1e-08 0.005
3294 3295 3496 1e-08 0.005
3294 3496 3495 1e-08 0.005
3295 3296 3496 1e-08 0.005
3296 3497 3496 1e-08 0.005
3296 3297 3498 1e-08 0.005
3296 3498 3497 1e-08 0.005
3297 3298 3498 1e-08 0.005
3298 3499 3498 1e-08 0.005
3298 3299 3500 1e-08 0.005
3298 3500 3499 1e-08 0.005
3299 3300 3500 1e-08 0.005
3300 3501 3500 1e-08 0.005
3300 3301 3502 1e-08 0.005
3300 3502 3501 1e-08 0.005
3301 3302 3502 1e-08 0.005
3302 3503 3502 1e-08 0.005
3302 3303 3504 1e-08 0.005
3302 3504 3503 1e-08 0.005
3303 3304 3504 1e-08 0.005
3304 3505 3504 1e-08 0.005
3304 3305 3506 1e-08 0.005
3304 3506 3505 1e-08 0.005
3305 3306 3506 1e-08 0.005
3306 3507 3506 1e-08 0.005
3306 3307 3508 1e-08 0.005
3306 3508 3507 1e-08 0.005
3307 3308 3508 1e-08 0.005
3308 3509 3508 1e-08 0.005
3308 3309 3510 1e-08 0.005
3308 3510 3509 1e-08 0.005
3309 3310 3510 1e-08 0.005
3310 3511 3510 1e-08 0.005
3310 3311 3512 1e-08 0.005
3310 3512 3511 1e-08 0.005
3311 3312 3512 1e-08 0.005
3312 3513 3512 1e-08 0.005
3312 3313 3514 1e-08 0.005
3312 3514 3513 1e-08 0.005
3313 3314 3514 1e-08 0.005
3314 3515 3514 1e-08 0.005
3314 3315 3516 1e-08 0.005
3314 3516 3515 1e-08 0.005
3315 3316 3516 1e-08 0.005
3316 3517 3516 1e-08 0.005
3316 3317 3518 1e-08 0.001
3316 3518 3517 1e-08 0.001
3317 3318 3518 1e-08 0.001
3318 3519 3518 1e-08 0.001
3318 3319 3520 1e-08 0.001
3318 3520 3519 1e-08 0.001
3319 3320 3520 1e-08 0.001
3320 3521 3520 1e-08 0.001
3320 3321 3522 1e-08 0.001
3320 3522 3521 1e-08 0.001
3321 3322 3522 1e-08 0.001
3322 3523 3522 1e-08 0.001
3322 3323 3524 1e-08 0.001
3322 3524 3523 1e-08 0.001
3323 3324 3524 1e-08 0.001
3324 3525 3524 1e-08 0.001
3324 3325 3526 1e-08 0.001
3324 3526 3525 1e-08 0.001
3325 3326 3526 1e-08 0.001
3326 3527 3526 1e-08 0.001
3326 3327 3528 1e-08 0.001
3326 3528 3527 1e-08 0.001
3327 3328 3528 1e-08 0.001
3328 3529 3528 1e-08 0.001
3328 3329 3530 1e-08 0.001
3328 3530 3529 1e-08 0.001
3329 3330 3530 1e-08 0.001
3330 3531 3530 1e-08 0.001
3330 3331 3532 1e-08 0.001
3330 3532 3531 1e-08 0.001
3331 3332 3532 1e-08 0.001
3332 3533 3532 1e-08 0.001
3332 3333 3534 1e-08 0.001
3332 3534 3533 1e-08 0.001
3333 3334 3534 1e-08 0.001
3334 3535 3534 1e-08 0.001
3334 3335 3536 1e-08 0.001
3334 3536 3535 1e-08 0.001
3335 3336 3536 1e-08 0.001
3336 3537 3536 1e-08 0.001
3336 3337 3538 1e-08 0.001
3336 3538 3537 1e-08 0.001
3337 3338 3538 1e-08 0.001
3338 3539 3538 1e-08 0.001
3338 3339 3540 1e-08 0.001
3338 3540 3539 1e-08 0.001
3339 3340 3540 1e-08 0.001
3340 3541 3540 1e-08 0.001
3340 3341 3542 1e-08 0.001
3340 3542 3541 1e-08 0.001
3341 3342 3542 1e-08 0.001
3342 3543 3542 1e-08 0.001
3342 3343 3544 1e-08 0.001
3342 3544 3543 1e-08 0.001
3343 3344 3544 1e-08 0.001
3344 3545 3544 1e-08 0.001
3344 3345 3546 1e-08 0.001
3344 3546 3545 1e-08 0.001
3345 3346 3546 1e-08 0.001
3346 3547 3546 1e-08 0.001
3346 3347 3548 1e-08 0.001
3346 3548 3547 1e-08 0.001
3347 3348 3548 1e-08 0.001
3348 3549 3548 1e-08 0.001
3348 3349 3550 1e-08 0.001
3348 3550 3549 1e-08 0.001
3349 3350 3550 1e-08 0.001
3350 3551 3550 1e-08 0.001
3350 3351 3552 1e-08 0.001
3350 3552 3551 1e-08 0.001
3351 3352 3552 1e-08 0.001
3352 3553 3552 1e-08 0.001
3352 3353 3554 1e-08 0.001
3352 3554 3553 1e-08 0.001
3353 3354 3554 1e-08 0.001
3354 3555 3554 1e-08 0.001
3354 3355 3556 1e-08 0.001
3354 3556 3555 1e-08 0.001
3355 3356 3556 1e-08 0.001
3356 3557 3556 1e-08 0.001
3356 3357 3558 1e-08 0.001
3356 3558 3557 1e-08 0.001
3357 3358 3558 1e-08 0.001
3358 3559 3558 1e-08 0.001
3358 3359 3560 1e-08 0.001
3358 3560 3559 1e-08 0.001
3359 3360 3560 1e-08 0.001
3360 3561 3560 1e-08 0.001
3360 3361 3562 1e-08 0.001
3360 3562 3561 1e-08 0.001
3361 3362 3562 1e-08 0.001
3362 3563 3562 1e-08 0.001
3362 3363 3564 1e-08 0.001
3362 3564 3563 1e-08 0.001
3363 3364 3564 1e-08 0.001
3364 3565 3564 1e-08 0.001
3364 3365 3566 1e-08 0.001
3364 3566 3565 1e-08 0.001
3365 3366 3566 1e-08 0.001
3366 3567 3566 1e-08 0.001
3366 3367 3568 1e-08 0.001
3366 3568 3567 1e-08 0.001
3367 3368 3568 1e-08 0.001
3368 3569 3568 1e-08 0.001
3368 3369 3570 1e-08 0.001
3368 3570 3569 1e-08 0.001
3369 3370 3570 1e-08 0.001
3370 3571 3570 1e-08 0.001
3370 3371 3572 1e-08 0.001
3370 3572 3571 1e-08 0.001
3371 3372 3572 1e-08 0.001
3372 3573 3572 1e-08 0.001
3372 3373 3574 1e-08 0.001
3372 3574 3573 1e-08 0.001
3373 3374 3574 1e-08 0.001
3374 3575 3574 1e-08 0.001
3374 3375 3576 1e-08 0.001
3374 3576 3575 1e-08 0.001
3375 3376 3576 1e-08 0.001
3376 3577 3576 1e-08 0.001
3376 3377 3578 1e-08 0.001
3376 3578 3577 1e-08 0.001
3377 3378 3578 1e-08 0.001
3378 3579 3578 1e-08 0.001
3378 3379 3580 1e-08 0.001
3378 3580 3579 1e-08 0.001
3379 3380 3580 1e-08 0.001
3380 3581 3580 1e-08 0.001
3380 3381 3582 1e-08 0.001
3380 3582 3581 1e-08 0.001
3381 3382 3582 1e-08 0.001
3382 3583 3582 1e-08 0.001
3382 3383 3584 1e-08 0.001
3382 3584 3583 1e-08 0.001
3383 3384 3584 1e-08 0.001
3384 3585 3584 1e-08 0.001
3384 3385 3586 1e-08 0.001
3384 3586 3585 1e-08 0.001
3385 3386 3586 1e-08 0.001
3386 3587 3586 1e-08 0.001
3386 3387 3588 1e-08 0.001
3386 3588 3587 1e-08 0.001
3387 3388 3588 1e-08 0.001
3388 3589 3588 1e-08 0.001
3388 3389 3590 1e-08 0.001
3388 3590 3589 1e-08 0.001
3389 3390 3590 1e-08 0.001
3390 3591 3590 1e-08 0.001
3390 3391 3592 1e-08 0.001
3390 3592 3591 1e-08 0.001
3391 3392 3592 1e-08 0.001
3392 3593 3592 1e-08 0.001
3392 3393 3594 1e-08 0.001
3392 3594 3593 1e-08 0.001
3393 3394 3594 1e-08 0.001
3394 3595 3594 1e-08 0.001
3394 3395 3596 1e-08 0.001
3394 3596 3595 1e-08 0.001
3395 3396 3596 1e-08 0.001
3396 3597 3596 1e-08 0.001
3396 3397 3598 1e-08 0.001
3396 3598 3597 1e-08 0.001
3397 3398 3598 1e-08 0.001
3398 3599 3598 1e-08 0.001
3398 3399 3600 1e-08 0.001
3398 3600 3599 1e-08 0.001
3399 3400 3600 1e-08 0.001
3400 3601 3600 1e-08 0.001
3400 3401 3602 1e-08 0.001
3400 3602 3601 1e-08 0.001
3401 3402 3602 1e-08 0.001
3402 3603 3602 1e-08 0.001
3402 3403 3604 1e-08 0.001
3402 3604 3603 1e-08 0.001
3403 3404 3604 1e-08 0.001
3404 3605 3604 1e-08 0.001
3404 3405 3606 1e-08 0.001
3404 3606 3605 1e-08 0.001
3405 3406 3606 1e-08 0.001
3406 3607 3606 1e-08 0.001
3406 3407 3608 1e-08 0.001
3406 3608 3607 1e-08 0.001
3407 3408 3608 1e-08 0.001
3408 3609 3608 1e-08 0.001
3408 3409 3610 1e-08 0.001
3408 3610 3609 1e-08 0.001
3409 3410 3610 1e-08 0.001
3410 3611 3610 1e-08 0.001
3410 3411 3612 1e-08 0.001
3410 3612 3611 1e-08 0.001
3411 3412 3612 1e-08 0.001
3412 3613 3612 1e-08 0.001
3412 3413 3614 1e-08 0.001
3412 3614 3613 1e-08 0.001
3413 3414 3614 1e-08 0.001
3414 3615 3614 1e-08 0.001
3414 3415 3616 1e-08 0.001
3414 3616 3615 1e-08 0.001
3415 3416 3616 1e-08 0.001
3416 3617 3616 1e-08 0.001
3417 3418 3618 1e-08 0.005
3418 3619 3618 1e-08 0.005
3418 3419 3620 1e-08 0.005
3418 3620 3619 1e-08 0.005
3419 3420 3620 1e-08 0.005
3420 3621 3620 1e-08 0.005
3420 3421 3622 1e-08 0.005
3420 3622 3621 1e-08 0.005
3421 3422 3622 1e-08 0.005
3422 3623 3622 1e-08 0.005
3422 3423 3624 1e-08 0.005
3422 3624 3623 1e-08 0.005
3423 3424 3624 1e-08 0.005
3424 3625 3624 1e-08 0.005
3424 3425 3626 1e-08 0.005
3424 3626 3625 1e-08 0.005
3425 3426 3626 1e-08 0.005
3426 3627 3626 1e-08 0.005
3426 3427 3628 1e-08 0.005
3426 3628 3627 1e-08 0.005
3427 3428 3628 1e-08 0.005
3428 3629 3628 1e-08 0.005
3428 3429 3630 1e-08 0.005
3428 3630 3629 1e-08 0.005
3429 3430 3630 1e-08 0.005
3430 3631 3630 1e-08 0.005
3430 3431 3632 1e-08 0.005
3430 3632 3631 1e-08 0.005
3431 3432 3632 1e-08 0.005
3432 3633 3632 1e-08 0.005
3432 3433 3634 1e-08 0.005
3432 3634 3633 1e-08 0.005
3433 3434 3634 1e-08 0.005
3434 3635 3634 1e-08 0.005
3434 3435 3636 1e-08 0.005
3434 3636 3635 1e-08 0.005
3435 3436 3636 1e-08 0.005
3436 3637 3636 1e-08 0.005
3436 3437 3638 1e-08 0.005
3436 3638 3637 1e-08 0.005
3437 3438 3638 1e-08 0.005
3438 3639 3638 1e-08 0.005
3438 3439 3640 1e-08 0.005
3438 3640 3639 1e-08 0.005
3439 3440 3640 1e-08 0.005
3440 3641 3640 1e-08 0.005
3440 3441 3642 1e-08 0.005
3440 3642 3641 1e-08 0.005
3441 3442 3642 1e-08 0.005
3442 3643 3642 1e-08 0.005
3442 3443 3644 1e-08 0.005
3442 3644 3643 1e-08 0.005
3443 3444 3644 1e-08 0.005
3444 3645 3644 1e-08 0.005
3444 3445 3646 1e-08 0.005
3444 3646 3645 1e-08 0.005
3445 3446 3646 1e-08 0.005
3446 3647 3646 1e-08 0.005
3446 3447 3648 1e-08 0.005
3446 3648 3647 1e-08 0.005
3447 3448 3648 1e-08 0.005
3448 3649 3648 1e-08 0.005
3448 3449 3650 1e-08 0.005
3448 3650 3649 1e-08 0.005
3449 3450 3650 1e-08 0.005
3450 3651 3650 1e-08 0.005
3450 3451 3652 1e-08 0.005
3450 3652 3651 1e-08 0.005
3451 3452 3652 1e-08 0.005
3452 3653 3652 1e-08 0.005
3452 3453 3654 1e-08 0.005
3452 3654 3653 1e-08 0.005
3453 3454 3654 1e-08 0.005
3454 3655 3654 1e-08 0.005
3454 3455 3656 1e-08 0.005
3454 3656 3655 1e-08 0.005
3455 3456 3656 1e-08 0.005
3456 3657 3656 1e-08 0.005
3456 3457 3658 1e-08 0.005
3456 3658 3657 1e-08 0.005
3457 3458 3658 1e-08 0.005
3458 3659 3658 1e-08 0.005
3458 3459 3660 1e-08 0.005
3458 3660 3659 1e-08 0.005
3459 3460 3660 1e-08 0.005
3460 3661 3660 1e-08 0.005
3460 3461 3662 1e-08 0.005
3460 3662 3661 1e-08 0.005
3461 3462 3662 1e-08 0.005
3462 3663 3662 1e-08 0.005
3462 3463 3664 1e-08 0.005
3462 3664 3663 1e-08 0.005
3463 3464 3664 1e-08 0.005
3464 3665 3664 1e-08 0.005
3464 3465 3666 1e-08 0.005
3464 3666 3665 1e-08 0.005
3465 3466 3666 1e-08 0.005
3466 3667 3666 1e-08 0.005
3466 3467 3668 1e-08 0.005
3466 3668 3667 1e-08 0.005
3467 3468 3668 1e-08 0.005
3468 3669 3668 1e-08 0.005
3468 3469 3670 1e-08 0.005
3468 3670 3669 1e-08 0.005
3469 3470 3670 1e-08 0.005
3470 3671 3670 1e-08 0.005
3470 3471 3672 1e-08 0.005
3470 3672 3671 1e-08 0.005
3471 3472 3672 1e-08 0.005
3472 3673 3672 1e-08 0.005
3472 3473 3674 1e-08 0.005
3472 3674 3673 1e-08 0.005
3473 3474 3674 1e-08 0.005
3474 3675 3674 1e-08 0.005
3474 3475 3676 1e-08 0.005
3474 3676 3675 1e-08 0.005
3475 3476 3676 1e-08 0.005
3476 3677 3676 1e-08 0.005
3476 3477 3678 1e-08 0.005
3476 3678 3677 1e-08 0.005
3477 3478 3678 1e-08 0.005
3478 3679 3678 1e-08 0.005
3478 3479 3680 1e-08 0.005
3478 3680 3679 1e-08 0.005
3479 3480 3680 1e-08 0.005
3480 3681 3680 1e-08 0.005
3480 3481 3682 1e-08 0.005
3480 3682 3681 1e-08 0.005
3481 3482 3682 1e-08 0.005
3482 3683 3682 1e-08 0.005
3482 3483 3684 1e-08 0.005
3482 3684 3683 1e-08 0.005
3483 3484 3684 1e-08 0.005
3484 3685 3684 1e-08 0.005
3484 3485 3686 1e-08 0.005
3484 3686 3685 1e-08 0.005
3485 3486 3686 1e-08 0.005
3486 3687 3686 1e-08 0.005
3486 3487 3688 1e-08 0.005
3486 3688 3687 1e-08 0.005
3487 3488 3688 1e-08 0.005
3488 3689 3688 1e-08 0.005
3488 3489 3690 1e-08 0.005
3488 3690 3689 1e-08 0.005
3489 3490 3690 1e-08 0.005
3490 3691 3690 1e-08 0.005
3490 3491 3692 1e-08 0.005
3490 3692 3691 1e-08 0.005
3491 3492 3692 1e-08 0.005
3492 3693 3692 1e-08 0.005
3492 3493 3694 1e-08 0.005
3492 3694 3693 1e-08 0.005
3493 3494 3694 1e-08 0.005
3494 3695 3694 1e-08 0.005
3494 3495 3696 1e-08 0.005
3494 3696 3695 1e-08 0.005
3495 3496 3696 1e-08 0.005
3496 3697 3696 1e-08 0.005
3496 3497 3698 1e-08 0.005
3496 3698 3697 1e-08 0.005
3497 3498 3698 1e-08 0.005
3498 3699 3698 1e-08 0.005
3498 3499 3700 1e-08 0.005
3498 3700 3699 1e-08 0.005
3499 3500 3700 1e-08 0.005
3500 3701 3700 1e-08 0.005
3500 3501 3702 1e-08 0.005
3500 3702 3701 1e-08 0.005
3501 3502 3702 1e-08 0.005
3502 3703 3702 1e-08 0.005
3502 3503 3704 1e-08 0.005
3502 3704 3703 1e-08 0.005
3503 3504 3704 1e-08 0.005
3504 3705 3704 1e-08 0.005
3504 3505 3706 1e-08 0.005
3504 3706 3705 1e-08 0.005
3505 3506 3706 1e-08 0.005
3506 3707 3706 1e-08 0.005
3506 3507 3708 1e-08 0.005
3506 3708 3707 1e-08 0.005
3507 3508 3708 1e-08 0.005
3508 3709 3708 1e-08 0.005
3508 3509 3710 1e-08 0.005
3508 3710 3709 1e-08 0.005
3509 3510 3710 1e-08 0.005
3510 3711 3710 1e-08 0.005
3510 3511 3712 1e-08 0.005
3510 3712 3711 1e-08 0.005
3511 3512 3712 1e-08 0.005
3512 3713 3712 1e-08 0.005
3512 3513 3714 1e-08 0.005
3512 3714 3713 1e-08 0.005
3513 3514 3714 1e-08 0.005
3514 3715 3714 1e-08 0.005
3514 3515 3716 1e-08 0.005
3514 3716 3715 1e-08 0.005
3515 3516 3716 1e-08 0.005
3516 3717 3716 1e-08 0.005
3516 3517 3718 1e-08 0.005
3516 3718 3717 1e-08 0.005
3517 3518 3718 1e-08 0.001
3518 3719 3718 1e-08 0.001
3518 3519 3720 1e-08 0.001
3518 3720 3719 1e-08 0.001
3519 3520 3720 1e-08 0.001
3520 3721 3720 1e-08 0.001
3520 3521 3722 1e-08 0.001
3520 3722 3721 1e-08 0.001
3521 3522 3722 1e-08 0.001
3522 3723 3722 1e-08 0.001
3522 3523 3724 1e-08 0.001
3522 3724 3723 1e-08 0.001
3523 3524 3724 1e-08 0.001
3524 3725 3724 1e-08 0.001
3524 3525 3726 1e-08 0.001
3524 3726 3725 1e-08 0.001
3525 3526 3726 1e-08 0.001
3526 3727 3726 1e-08 0.001
3526 3527 3728 1e-08 0.001
3526 3728 3727 1e-08 0.001
3527 3528 3728 1e-08 0.001
3528 3729 3728 1e-08 0.001
3528 3529 3730 1e-08 0.001
3528 3730 3729 1e-08 0.001
3529 3530 3730 1e-08 0.001
3530 3731 3730 1e-08 0.001
3530 3531 3732 1e-08 0.001
3530 3732 3731 1e-08 0.001
3531 3532 3732 1e-08 0.001
3532 3733 3732 1e-08 0.001
3532 3533 3734 1e-08 0.001
3532 3734 3733 1e-08 0.001
3533 3534 3734 1e-08 0.001
3534 3735 3734 1e-08 0.001
3534 3535 3736 1e-08 0.001
3534 3736 3735 1e-08 0.001
3535 3536 3736 1e-08 0.001
3536 3737 3736 1e-08 0.001
3536 3537 3738 1e-08 0.001
3536 3738 3737 1e-08 0.001
3537 3538 3738 1e-08 0.001
3538 3739 3738 1e-08 0.001
3538 3539 3740 1e-08 0.001
3538 3740 3739 1e-08 0.001
3539 3540 3740 1e-08 0.001
3540 3741 3740 1e-08 0.001
3540 3541 3742 1e-08 0.001
3540 3742 3741 1e-08 0.001
3541 3542 3742 1e-08 0.001
3542 3743 3742 1e-08 0.001
3542 3543 3744 1e-08 0.001
3542 3744 3743 1e-08 0.001
3543 3544 3744 1e-08 0.001
3544 3745 3744 1e-08 0.001
3544 3545 3746 1e-08 0.001
3544 3746 3745 1e-08 0.001
3545 3546 3746 1e-08 0.001
3546 3747 3746 1e-08 0.001
3546 3547 3748 1e-08 0.001
3546 3748 3747 1e-08 0.001
3547 3548 3748 1e-08 0.001
3548 3749 3748 1e-08 0.001
3548 3549 3750 1e-08 0.001
3548 3750 3749 1e-08 0.001
3549 3550 3750 1e-08 0.001
3550 3751 3750 1e-08 0.001
3550 3551 3752 1e-08 0.001
3550 3752 3751 1e-08 0.001
3551 3552 3752 1e-08 0.001
3552 3753 3752 1e-08 0.001
3552 3553 3754 1e-08 0.001
3552 3754 3753 1e-08 0.001
3553 3554 3754 1e-08 0.001
3554 3755 3754 1e-08 0.001
3554 3555 3756 1e-08 0.001
3554 3756 3755 1e-08 0.001
3555 3556 3756 1e-08 0.001
3556 3757 3756 1e-08 0.001
3556 3557 3758 1e-08 0.001
3556 3758 3757 1e-08 0.001
3557 3558 3758 1e-08 0.001
3558 3759 3758 1e-08 0.001
3558 3559 3760 1e-08 0.001
3558 3760 3759 1e-08 0.001
3559 3560 3760 1e-08 0.001
3560 3761 3760 1e-08 0.001
3560 3561 3762 1e-08 0.001
3560 3762 3761 1e-08 0.001
3561 3562 3762 1e-08 0.001
3562 3763 3762 1e-08 0.001
3562 3563 3764 1e-08 0.001
3562 3764 3763 1e-08 0.001
3563 3564 3764 1e-08 0.001
3564 3765 3764 1e-08 0.001
3564 3565 3766 1e-08 0.001
3564 3766 3765 1e-08 0.001
3565 3566 3766 1e-08 0.001
3566 3767 3766 1e-08 0.001
3566 3567 3768 1e-08 0.001
3566 3768 3767 1e-08 0.001
3567 3568 3768 1e-08 0.001
3568 3769 3768 1e-08 0.001
3568 3569 3770 1e-08 0.001
3568 3770 3769 1e-08 0.001
3569 3570 3770 1e-08 0.001
3570 3771 3770 1e-08 0.001
3570 3571 3772 1e-08 0.001
3570 3772 3771 1e-08 0.001
3571 3572 3772 1e-08 0.001
3572 3773 3772 1e-08 0.001
3572 3573 3774 1e-08 0.001
3572 3774 3773 1e-08 0.001
3573 3574 3774 1e-08 0.001
3574 3775 3774 1e-08 0.001
3574 3575 3776 1e-08 0.001
3574 3776 3775 1e-08 0.001
3575 3576 3776 1e-08 0.001
3576 3777 3776 1e-08 0.001
3576 3577 3778 1e-08 0.001
3576 3778 3777 1e-08 0.001
3577 3578 3778 1e-08 0.001
3578 3779 3778 1e-08 0.001
3578 3579 3780 1e-08 0.001
3578 3780 3779 1e-08 0.001
3579 3580 3780 1e-08 0.001
3580 3781 3780 1e-08 0.001
3580 3581 3782 1e-08 0.001
3580 3782 3781 1e-08 0.001
3581 3582 3782 1e-08 0.001
3582 3783 3782 1e-08 0.001
3582 3583 3784 1e-08 0.001
3582 3784 3783 1e-08 0.001
3583 3584 3784 1e-08 0.001
3584 3785 3784 1e-08 0.001
3584 3585 3786 1e-08 0.001
3584 3786 3785 1e-08 0.001
3585 3586 3786 1e-08 0.001
3586 3787 3786 1e-08 0.001
3586 3587 3788 1e-08 0.001
3586 3788 3787 1e-08 0.001
3587 3588 3788 1e-08 0.001
3588 3789 3788 1e-08 0.001
3588 3589 3790 1e-08 0.001
3588 3790 3789 1e-08 0.001
3589 3590 3790 1e-08 0.001
3590 3791 3790 1e-08 0.001
3590 3591 3792 1e-08 0.001
3590 3792 3791 1e-08 0.001
3591 3592 3792 1e-08 0.001
3592 3793 3792 1e-08 0.001
3592 3593 3794 1e-08 0.001
3592 3794 3793 1e-08 0.001
3593 3594 3794 1e-08 0.001
3594 3795 3794 1e-08 0.001
3594 3595 3796 1e-08 0.001
3594 3796 3795 1e-08 0.001
3595 3596 3796 1e-08 0.001
3596 3797 3796 1e-08 0.001
3596 3597 3798 1e-08 0.001
3596 3798 3797 1e-08 0.001
3597 3598 3798 1e-08 0.001
3598 3799 3798 1e-08 0.001
3598 3599 3800 1e-08 0.001
3598 3800 3799 1e-08 0.001
3599 3600 3800 1e-08 0.001
3600 3801 3800 1e-08 0.001
3600 3601 3802 1e-08 0.001
3600 3802 3801 1e-08 0.001
3601 3602 3802 1e-08 0.001
3602 3803 3802 1e-08 0.001
3602 3603 3804 1e-08 0.001
3602 3804 3803 1e-08 0.001
3603 3604 3804 1e-08 0.001
3604 3805 3804 1e-08 0.001
3604 3605 3806 1e-08 0.001
3604 3806 3805 1e-08 0.001
3605 3606 3806 1e-08 0.001
3606 3807 3806 1e-08 0.001
3606 3607 3808 1e-08 0.001
3606 3808 3807 1e-08 0.001
3607 3608 3808 1e-08 0.001
3608 3809 3808 1e-08 0.001
3608 3609 3810 1e-08 0.001
3608 3810 3809 1e-08 0.001
3609 3610 3810 1e-08 0.001
3610 3811 3810 1e-08 0.001
3610 3611 3812 1e-08 0.001
3610 3812 3811 1e-08 0.001
3611 3612 3812 1e-08 0.001
3612 3813 3812 1e-08 0.001
3612 3613 3814 1e-08 0.001
3612 3814 3813 1e-08 0.001
3613 3614 3814 1e-08 0.001
3614 3815 3814 1e-08 0.001
3614 3615 3816 1e-08 0.001
3614 3816 3815 1e-08 0.001
3615 3616 3816 1e-08 0.001
3616 3817 3816 1e-08 0.001
3616 3617 3818 1e-08 0.001
3616 3818 3817 1e-08 0.001
3618 3619 3820 1e-08 0.005
3618 3820 3819 1e-08 0.005
3619 3620 3820 1e-08 0.005
3620 3821 3820 1e-08 0.005
3620 3621 3822 1e-08 0.005
3620 3822 3821 1e-08 0.005
3621 3622 3822 1e-08 0.005
3622 3823 3822 1e-08 0.005
3622 3623 3824 1e-08 0.005
3622 3824 3823 1e-08 0.005
3623 3624 3824 1e-08 0.005
3624 3825 3824 1e-08 0.005
3624 3625 3826 1e-08 0.005
3624 3826 3825 1e-08 0.005
3625 3626 3826 1e-08 0.005
3626 3827 3826 1e-08 0.005
3626 3627 3828 1e-08 0.005
3626 3828 3827 1e-08 0.005
3627 3628 3828 1e-08 0.005
3628 3829 3828 1e-08 0.005
3628 3629 3830 1e-08 0.005
3628 3830 3829 1e-08 0.005
3629 3630 3830 1e-08 0.005
3630 3831 3830 1e-08 0.005
3630 3631 3832 1e-08 0.005
3630 3832 3831 1e-08 0.005
3631 3632 3832 1e-08 0.005
3632 3833 3832 1e-08 0.005
3632 3633 3834 1e-08 0.005
3632 3834 3833 1e-08 0.005
3633 3634 3834 1e-08 0.005
3634 3835 3834 1e-08 0.005
3634 3635 3836 1e-08 0.005
3634 3836 3835 1e-08 0.005
3635 3636 3836 1e-08 0.005
3636 3837 3836 1e-08 0.005
3636 3637 3838 1e-08 0.005
3636 3838 3837 1e-08 0.005
3637 3638 3838 1e-08 0.005
3638 3839 3838 1e-08 0.005
3638 3639 3840 1e-08 0.005
3638 3840 3839 1e-08 0.005
3639 3640 3840 1e-08 0.005
3640 3841 3840 1e-08 0.005
3640 3641 3842 1e-08 0.005
3640 3842 3841 1e-08 0.005
3641 3642 3842 1e-08 0.005
3642 3843 3842 1e-08 0.005
3642 3643 3844 1e-08 0.005
3642 3844 3843 1e-08 0.005
3643 3644 3844 1e-08 0.005
3644 3845 3844 1e-08 0.005
3644 3645 3846 1e-08 0.005
3644 3846 3845 1e-08 0.005
3645 3646 3846 1e-08 0.005
3646 3847 3846 1e-08 0.005
3646 3647 3848 1e-08 0.005
3646 3848 3847 1e-08 0.005
3647 3648 3848 1e-08 0.005
3648 3849 3848 1e-08 0.005
3648 3649 3850 1e-08 0.005
3648 3850 3849 1e-08 0.005
3649 3650 3850 1e-08 0.005
3650 3851 3850 1e-08 0.005
3650 3651 3852 1e-08 0.005
3650 3852 3851 1e-08 0.005
3651 3652 3852 1e-08 0.005
3652 3853 3852 1e-08 0.005
3652 3653 3854 1e-08 0.005
3652 3854 3853 1e-08 0.005
3653 3654 3854 1e-08 0.005
3654 3855 3854 1e-08 0.005
3654 3655 3856 1e-08 0.005
3654 3856 3855 1e-08 0.005
3655 3656 3856 1e-08 0.005
3656 3857 3856 1e-08 0.005
3656 3657 3858 1e-08 0.005
3656 3858 3857 1e-08 0.005
3657 3658 3858 1e-08 0.005
3658 3859 3858 1e-08 0.005
3658 3659 3860 1e-08 0.005
3658 3860 3859 1e-08 0.005
3659 3660 3860 1e-08 0.005
3660 3861 3860 1e-08 0.005
3660 3661 3862 1e-08 0.005
3660 3862 3861 1e-08 0.005
3661 3662 3862 1e-08 0.005
3662 3863 3862 1e-08 0.005
3662 3663 3864 1e-08 0.005
3662 3864 3863 1e-08 0.005
3663 3664 3864 1e-08 0.005
3664 3865 3864 1e-08 0.005
3664 3665 3866 1e-08 0.005
3664 3866 3865 1e-08 0.005
3665 3666 3866 1e-08 0.005
3666 3867 3866 1e-08 0.005
3666 3667 3868 1e-08 0.005
3666 3868 3867 1e-08 0.005
3667 3668 3868 1e-08 0.005
3668 3869 3868 1e-08 0.005
3668 3669 3870 1e-08 0.005
3668 3870 3869 1e-08 0.005
3669 3670 3870 1e-08 0.005
3670 3871 3870 1e-08 0.005
3670 3671 3872 1e-08 0.005
3670 3872 3871 1e-08 0.005
3671 3672 3872 1e-08 0.005
3672 3873 3872 1e-08 0.005
3672 3673 3874 1e-08 0.005
3672 3874 3873 1e-08 0.005
3673 3674 3874 1e-08 0.005
3674 3875 3874 1e-08 0.005
3674 3675 3876 1e-08 0.005
3674 3876 3875 1e-08 0.005
3675 3676 3876 1e-08 0.005
3676 3877 3876 1e-08 0.005
3676 3677 3878 1e-08 0.005
3676 3878 3877 1e-08 0.005
3677 3678 3878 1e-08 0.005
3678 3879 3878 1e-08 0.005
3678 3679 3880 1e-08 0.005
3678 3880 3879 1e-08 0.005
3679 3680 3880 1e-08 0.005
3680 3881 3880 1e-08 0.005
3680 3681 3882 1e-08 0.005
3680 3882 3881 1e-08 0.005
3681 3682 3882 1e-08 0.005
3682 3883 3882 1e-08 0.005
3682 3683 3884 1e-08 0.005
3682 3884 3883 1e-08 0.005
3683 3684 3884 1e-08 0.005
3684 3885 3884 1e-08 0.005
3684 3685 3886 1e-08 0.005
3684 3886 3885 1e-08 0.005
3685 3686 3886 1e-08 0.005
3686 3887 3886 1e-08 0.005
3686 3687 3888 1e-08 0.005
3686 3888 3887 1e-08 0.005
3687 3688 3888 1e-08 0.005
3688 3889 3888 1e-08 0.005
3688 3689 3890 1e-08 0.005
3688 3890 3889 1e-08 0.005
3689 3690 3890 1e-08 0.005
3690 3891 3890 1e-08 0.005
3690 3691 3892 1e-08 0.005
3690 3892 3891 1e-08 0.005
3691 3692 3892 1e-08 0.005
3692 3893 3892 1e-08 0.005
3692 3693 3894 1e-08 0.005
3692 3894 3893 1e-08 0.005
3693 3694 3894 1e-08 0.005
3694 3895 3894 1e-08 0.005
3694 3695 3896 1e-08 0.005
3694 3896 3895 1e-08 0.005
3695 3696 3896 1e-08 0.005
3696 3897 3896 1e-08 0.005
3696 3697 3898 1e-08 0.005
3696 3898 3897 1e-08 0.005
3697 3698 3898 1e-08 0.005
3698 3899 3898 1e-08 0.005
3698 3699 3900 1e-08 0.005
3698 3900 3899 1e-08 0.005
3699 3700 3900 1e-08 0.005
3700 3901 3900 1e-08 0.005
3700 3701 3902 1e-08 0.005
3700 3902 3901 1e-08 0.005
3701 3702 3902 1e-08 0.005
3702 3903 3902 1e-08 0.005
3702 3703 3904 1e-08 0.005
3702 3904 3903 1e-08 0.005
3703 3704 3904 1e-08 0.005
3704 3905 3904 1e-08 0.005
3704 3705 3906 1e-08 0.005
3704 3906 3905 1e-08 0.005
3705 3706 3906 1e-08 0.005
3706 3907 3906 1e-08 0.005
3706 3707 3908 1e-08 0.005
3706 3908 3907 1e-08 0.005
3707 3708 3908 1e-08 0.005
3708 3909 3908 1e-08 0.005
3708 3709 3910 1e-08 0.005
3708 3910 3909 1e-08 0.005
3709 3710 3910 1e-08 0.005
3710 3911 3910 1e-08 0.005
3710 3711 3912 1e-08 0.005
3710 3912 3911 1e-08 0.005
3711 3712 3912 1e-08 0.005
3712 3913 3912 1e-08 0.005
3712 3713 3914 1e-08 0.005
3712 3914 3913 1e-08 0.005
3713 3714 3914 1e-08 0.005
3714 3915 3914 1e-08 0.005
3714 3715 3916 1e-08 0.005
3714 3916 3915 1e-08 0.005
3715 3716 3916 1e-08 0.005
3716 3917 3916 1e-08 0.005
3716 3717 3918 1e-08 0.005
3716 3918 3917 1e-08 0.005
3717 3718 3918 1e-08 0.005
3718 3919 3918 1e-08 0.005
3718 3719 3920 1e-08 0.001
3718 3920 3919 1e-08 0.001
3719 3720 3920 1e-08 0.001
3720 3921 3920 1e-08 0.001
3720 3721 3922 1e-08 0.001
3720 3922 3921 1e-08 0.001
3721 3722 3922 1e-08 0.001
3722 3923 3922 1e-08 0.001
3722 3723 3924 1e-08 0.001
3722 3924 3923 1e-08 0.001
3723 3724 3924 1e-08 0.001
3724 3925 3924 1e-08 0.001
3724 3725 3926 1e-08 0.001
3724 3926 3925 1e-08 0.001
3725 3726 3926 1e-08 0.001
3726 3927 3926 1e-08 0.001
3726 3727 3928 1e-08 0.001
3726 3928 3927 1e-08 0.001
3727 3728 3928 1e-08 0.001
3728 3929 3928 1e-08 0.001
3728 3729 3930 1e-08 0.001
3728 3930 3929 1e-08 0.001
3729 3730 3930 1e-08 0.001
3730 3931 3930 1e-08 0.001
3730 3731 3932 1e-08 0.001
3730 3932 3931 1e-08 0.001
3731 3732 3932 1e-08 0.001
3732 3933 3932 1e-08 0.001
3732 3733 3934 1e-08 0.001
3732 3934 3933 1e-08 0.001
3733 3734 3934 1e-08 0.001
3734 3935 3934 1e-08 0.001
3734 3735 3936 1e-08 0.001
3734 3936 3935 1e-08 0.001
3735 3736 3936 1e-08 0.001
3736 3937 3936 1e-08 0.001
3736 3737 3938 1e-08 0.001
3736 3938 3937 1e-08 0.001
3737 3738 3938 1e-08 0.001
3738 3939 3938 1e-08 0.001
3738 3739 3940 1e-08 0.001
3738 3940 3939 1e-08 0.001
3739 3740 3940 1e-08 0.001
3740 3941 3940 1e-08 0.001
3740 3741 3942 1e-08 0.001
3740 3942 3941 1e-08 0.001
3741 3742 3942 1e-08 0.001
3742 3943 3942 1e-08 0.001
3742 3743 3944 1e-08 0.001
3742 3944 3943 1e-08 0.001
3743 3744 3944 1e-08 0.001
3744 3945 3944 1e-08 0.001
3744 3745 3946 1e-08 0.001
3744 3946 3945 1e-08 0.001
3745 3746 3946 1e-08 0.001
3746 3947 3946 1e-08 0.001
3746 3747 3948 1e-08 0.001
3746 3948 3947 1e-08 0.001
3747 3748 3948 1e-08 0.001
3748 3949 3948 1e-08 0.001
3748 3749 3950 1e-08 0.001
3748 3950 3949 1e-08 0.001
3749 3750 3950 1e-08 0.001
3750 3951 3950 1e-08 0.001
3750 3751 3952 1e-08 0.001
3750 3952 3951 1e-08 0.001
3751 3752 3952 1e-08 0.001
3752 3953 3952 1e-08 0.001
3752 3753 3954 1e-08 0.001
3752 3954 3953 1e-08 0.001
3753 3754 3954 1e-08 0.001
3754 3955 3954 1e-08 0.001
3754 3755 3956 1e-08 0.001
3754 3956 3955 1e-08 0.001
3755 3756 3956 1e-08 0.001
3756 3957 3956 1e-08 0.001
3756 3757 3958 1e-08 0.001
3756 3958 3957 1e-08 0.001
3757 3758 3958 1e-08 0.001
3758 3959 3958 1e-08 0.001
3758 3759 3960 1e-08 0.001
3758 3960 3959 1e-08 0.001
3759 3760 3960 1e-08 0.001
3760 3961 3960 1e-08 0.001
3760 3761 3962 1e-08 0.001
3760 3962 3961 1e-08 0.001
3761 3762 3962 1e-08 0.001
3762 3963 3962 1e-08 0.001
3762 3763 3964 1e-08 0.001
3762 3964 3963 1e-08 0.001
3763 3764 3964 1e-08 0.001
3764 3965 3964 1e-08 0.001
3764 3765 3966 1e-08 0.001
3764 3966 3965 1e-08 0.001
3765 3766 3966 1e-08 0.001
3766 3967 3966 1e-08 0.001
3766 3767 3968 1e-08 0.001
3766 3968 3967 1e-08 0.001
3767 3768 3968 1e-08 0.001
3768 3969 3968 1e-08 0.001
3768 3769 3970 1e-08 0.001
3768 3970 3969 1e-08 0.001
3769 3770 3970 1e-08 0.001
3770 3971 3970 1e-08 0.001
3770 3771 3972 1e-08 0.001
3770 3972 3971 1e-08 0.001
3771 3772 3972 1e-08 0.001
3772 3973 3972 1e-08 0.001
3772 3773 3974 1e-08 0.001
3772 3974 3973 1e-08 0.001
3773 3774 3974 1e-08 0.001
3774 3975 3974 1e-08 0.001
3774 3775 3976 1e-08 0.001
3774 3976 3975 1e-08 0.001
3775 3776 3976 1e-08 0.001
3776 3977 3976 1e-08 0.001
3776 3777 3978 1e-08 0.001
3776 3978 3977 1e-08 0.001
3777 3778 3978 1e-08 0.001
3778 3979 3978 1e-08 0.001
3778 3779 3980 1e-08 0.001
3778 3980 3979 1e-08 0.001
3779 3780 3980 1e-08 0.001
3780 3981 3980 1e-08 0.001
3780 3781 3982 1e-08 0.001
3780 3982 3981 1e-08 0.001
3781 3782 3982 1e-08 0.001
3782 3983 3982 1e-08 0.001
3782 3783 3984 1e-08 0.001
3782 3984 3983 1e-08 0.001
3783 3784 3984 1e-08 0.001
3784 3985 3984 1e-08 0.001
3784 3785 3986 1e-08 0.001
3784 3986 3985 1e-08 0.001
3785 3786 3986 1e-08 0.001
3786 3987 3986 1e-08 0.001
3786 3787 3988 1e-08 0.001
3786 3988 3987 1e-08 0.001
3787 3788 3988 1e-08 0.001
3788 3989 3988 1e-08 0.001
3788 3789 3990 1e-08 0.001
3788 3990 3989 1e-08 0.001
3789 3790 3990 1e-08 0.001
3790 3991 3990 1e-08 0.001
3790 3791 3992 1e-08 0.001
3790 3992 3991 1e-08 0.001
3791 3792 3992 1e-08 0.001
3792 3993 3992 1e-08 0.001
3792 3793 3994 1e-08 0.001
3792 3994 3993 1e-08 0.001
3793 3794 3994 1e-08 0.001
3794 3995 3994 1e-08 0.001
3794 3795 3996 1e-08 0.001
3794 3996 3995 1e-08 0.001
3795 3796 3996 1e-08 0.001
3796 3997 3996 1e-08 0.001
3796 3797 3998 1e-08 0.001
3796 3998 3997 1e-08 0.001
3797 3798 3998 1e-08 0.001
3798 3999 3998 1e-08 0.001
3798 3799 4000 1e-08 0.001
3798 4000 3999 1e-08 0.001
3799 3800 4000 1e-08 0.001
3800 4001 4000 1e-08 0.001
3800 3801 4002 1e-08 0.001
3800 4002 4001 1e-08 0.001
3801 3802 4002 1e-08 0.001
3802 4003 4002 1e-08 0.001
3802 3803 4004 1e-08 0.001
3802 4004 4003 1e-08 0.001
3803 3804 4004 1e-08 0.001
3804 4005 4004 1e-08 0.001
3804 3805 4006 1e-08 0.001
3804 4006 4005 1e-08 0.001
3805 3806 4006 1e-08 0.001
3806 4007 4006 1e-08 0.001
3806 3807 4008 1e-08 0.001
3806 4008 4007 1e-08 0.001
3807 3808 4008 1e-08 0.001
3808 4009 4008 1e-08 0.001
3808 3809 4010 1e-08 0.001
3808 4010 4009 1e-08 0.001
3809 3810 4010 1e-08 0.001
3810 4011 4010 1e-08 0.001
3810 3811 4012 1e-08 0.001
3810 4012 4011 1e-08 0.001
3811 3812 4012 1e-08 0.001
3812 4013 4012 1e-08 0.001
3812 3813 4014 1e-08 0.001
3812 4014 4013 1e-08 0.001
3813 3814 4014 1e-08 0.001
3814 4015 4014 1e-08 0.001
3814 3815 4016 1e-08 0.001
3814 4016 4015 1e-08 0.001
3815 3816 4016 1e-08 0.001
3816 4017 4016 1e-08 0.001
3816 3817 4018 1e-08 0.001
3816 4018 4017 1e-08 0.001
3817 3818 4018 1e-08 0.001
3818 4019 4018 1e-08 0.001
3819 3820 4020 1e-08 0.005
3820 4021 4020 1e-08 0.005
3820 3821 4022 1e-08 0.005
3820 4022 4021 1e-08 0.005
3821 3822 4022 1e-08 0.005
3822 4023 4022 1e-08 0.005
3822 3823 4024 1e-08 0.005
3822 4024 4023 1e-08 0.005
3823 3824 4024 1e-08 0.005
3824 4025 4024 1e-08 0.005
3824 3825 4026 1e-08 0.005
3824 4026 4025 1e-08 0.005
3825 3826 4026 1e-08 0.005
3826 4027 4026 1e-08 0.005
3826 3827 4028 1e-08 0.005
3826 4028 4027 1e-08 0.005
3827 3828 4028 1e-08 0.005
3828 4029 4028 1e-08 0.005
3828 3829 4030 1e-08 0.005
3828 4030 4029 1e-08 0.005
3829 3830 4030 1e-08 0.005
3830 4031 4030 1e-08 0.005
3830 3831 4032 1e-08 0.005
3830 4032 4031 1e-08 0.005
3831 3832 4032 1e-08 0.005
3832 4033 4032 1e-08 0.005
3832 3833 4034 1e-08 0.005
3832 4034 4033 1e-08 0.005
3833 3834 4034 1e-08 0.005
3834 4035 4034 1e-08 0.005
3834 3835 4036 1e-08 0.005
3834 4036 4035 1e-08 0.005
3835 3836 4036 1e-08 0.005
3836 4037 4036 1e-08 0.005
3836 3837 4038 1e-08 0.005
3836 4038 4037 1e-08 0.005
3837 3838 4038 1e-08 0.005
3838 4039 4038 1e-08 0.005
3838 3839 4040 1e-08 0.005
3838 4040 4039 1e-08 0.005
3839 3840 4040 1e-08 0.005
3840 4041 4040 1e-08 0.005
3840 3841 4042 1e-08 0.005
3840 4042 4041 1e-08 0.005
3841 3842 4042 1e-08 0.005
3842 4043 4042 1e-08 0.005
3842 3843 4044 1e-08 0.005
3842 4044 4043 1e-08 0.005
3843 3844 4044 1e-08 0.005
3844 4045 4044 1e-08 0.005
3844 3845 4046 1e-08 0.005
3844 4046 4045 1e-08 0.005
3845 3846 4046 1e-08 0.005
3846 4047 4046 1e-08 0.005
3846 3847 4048 1e-08 0.005
3846 4048 4047 1e-08 0.005
3847 3848 4048 1e-08 0.005
3848 4049 4048 1e-08 0.005
3848 3849 4050 1e-08 0.005
3848 4050 4049 1e-08 0.005
3849 3850 4050 1e-08 0.005
3850 4051 4050 1e-08 0.005
3850 3851 4052 1e-08 0.005
3850 4052 4051 1e-08 0.005
3851 3852 4052 1e-08 0.005
3852 4053 4052 1e-08 0.005
3852 3853 4054 1e-08 0.005
3852 4054 4053 1e-08 0.005
3853 3854 4054 1e-08 0.005
3854 4055 4054 1e-08 0.005
3854 3855 4056 1e-08 0.005
3854 4056 4055 1e-08 0.005
3855 3856 4056 1e-08 0.005
3856 4057 4056 1e-08 0.005
3856 3857 4058 1e-08 0.005
3856 4058 4057 1e-08 0.005
3857 3858 4058 1e-08 0.005
3858 4059 4058 1e-08 0.005
3858 3859 4060 1e-08 0.005
3858 4060 4059 1e-08 0.005
3859 3860 4060 1e-08 0.005
3860 4061 4060 1e-08 0.005
3860 3861 4062 1e-08 0.005
3860 4062 4061 1e-08 0.005
3861 3862 4062 1e-08 0.005
3862 4063 4062 1e-08 0.005
3862 3863 4064 1e-08 0.005
3862 4064 4063 1e-08 0.005
3863 3864 4064 1e-08 0.005
3864 4065 4064 1e-08 0.005
3864 3865 4066 1e-08 0.005
3864 4066 4065 1e-08 0.005
3865 3866 4066 1e-08 0.005
3866 4067 4066 1e-08 0.005
3866 3867 4068 1e-08 0.005
3866 4068 4067 1e-08 0.005
3867 3868 4068 1e-08 0.005
3868 4069 4068 1e-08 0.005
3868 3869 4070 1e-08 0.005
3868 4070 4069 1e-08 0.005
3869 3870 4070 1e-08 0.005
3870 4071 4070 1e-08 0.005
3870 3871 4072 1e-08 0.005
3870 4072 4071 1e-08 0.005
3871 3872 4072 1e-08 0.005
3872 4073 4072 1e-08 0.005
3872 3873 4074 1e-08 0.005
3872 4074 4073 1e-08 0.005
3873 3874 4074 1e-08 0.005
3874 4075 4074 1e-08 0.005
3874 3875 4076 1e-08 0.005
3874 4076 4075 1e-08 0.005
3875 3876 4076 1e-08 0.005
3876 4077 4076 1e-08 0.005
3876 3877 4078 1e-08 0.005
3876 4078 4077 1e-08 0.005
3877 3878 4078 1e-08 0.005
3878 4079 4078 1e-08 0.005
3878 3879 4080 1e-08 0.005
3878 4080 4079 1e-08 0.005
3879 3880 4080 1e-08 0.005
3880 4081 4080 1e-08 0.005
3880 3881 4082 1e-08 0.005
3880 4082 4081 1e-08 0.005
3881 3882 4082 1e-08 0.005
3882 4083 4082 1e-08 0.005
3882 3883 4084 1e-08 0.005
3882 4084 4083 1e-08 0.005
3883 3884 4084 1e-08 0.005
3884 4085 4084 1e-08 0.005
3884 3885 4086 1e-08 0.005
3884 4086 4085 1e-08 0.005
3885 3886 4086 1e-08 0.005
3886 4087 4086 1e-08 0.005
3886 3887 4088 1e-08 0.005
3886 4088 4087 1e-08 0.005
3887 3888 4088 1e-08 0.005
3888 4089 4088 1e-08 0.005
3888 3889 4090 1e-08 0.005
3888 4090 4089 1e-08 0.005
3889 3890 4090 1e-08 0.005
3890 4091 4090 1e-08 0.005
3890 3891 4092 1e-08 0.005
3890 4092 4091 1e-08 0.005
3891 3892 4092 1e-08 0.005
3892 4093 4092 1e-08 0.005
3892 3893 4094 1e-08 0.005
3892 4094 4093 1e-08 0.005
3893 3894 4094 1e-08 0.005
3894 4095 4094 1e-08 0.005
3894 3895 4096 1e-08 0.005
3894 4096 4095 1e-08 0.005
3895 3896 4096 1e-08 0.005
3896 4097 4096 1e-08 0.005
3896 3897 4098 1e-08 0.005
3896 4098 4097 1e-08 0.005
3897 3898 4098 1e-08 0.005
3898 4099 4098 1e-08 0.005
3898 3899 4100 1e-08 0.005
3898 4100 4099 1e-08 0.005
3899 3900 4100 1e-08 0.005
3900 4101 4100 1e-08 0.005
3900 3901 4102 1e-08 0.005
3900 4102 4101 1e-08 0.005
3901 3902 4102 1e-08 0.005
3902 4103 4102 1e-08 0.005
3902 3903 4104 1e-08 0.005
3902 4104 4103 1e-08 0.005
3903 3904 4104 1e-08 0.005
3904 4105 4104 1e-08 0.005
3904 3905 4106 1e-08 0.005
3904 4106 4105 1e-08 0.005
3905 3906 4106 1e-08 0.005
3906 4107 4106 1e-08 0.005
3906 3907 4108 1e-08 0.005
3906 4108 4107 1e-08 0.005
3907 3908 4108 1e-08 0.005
3908 4109 4108 1e-08 0.005
3908 3909 4110 1e-08 0.005
3908 4110 4109 1e-08 0.005
3909 3910 4110 1e-08 0.005
3910 4111 4110 1e-08 0.005
3910 3911 4112 1e-08 0.005
3910 4112 4111 1e-08 0.005
3911 3912 4112 1e-08 0.005
3912 4113 4112 1e-08 0.005
3912 3913 4114 1e-08 0.005
3912 4114 4113 1e-08 0.005
3913 3914 4114 1e-08 0.005
3914 4115 4114 1e-08 0.005
3914 3915 4116 1e-08 0.005
3914 4116 4115 1e-08 0.005
3915 3916 4116 1e-08 0.005
3916 4117 4116 1e-08 0.005
3916 3917 4118 1e-08 0.005
3916 4118 4117 1e-08 0.005
3917 3918 4118 1e-08 0.005
3918 4119 4118 1e-08 0.005
3918 3919 4120 1e-08 0.005
3918 4120 4119 1e-08 0.005
3919 3920 4120 1e-08 0.001
3920 4121 4120 1e-08 0.001
3920 3921 4122 1e-08 0.001
3920 4122 4121 1e-08 0.001
3921 3922 4122 1e-08 0.001
3922 4123 4122 1e-08 0.001
3922 3923 4124 1e-08 0.001
3922 4124 4123 1e-08 0.001
3923 3924 4124 1e-08 0.001
3924 4125 4124 1e-08 0.001
3924 3925 4126 1e-08 0.001
3924 4126 4125 1e-08 0.001
3925 3926 4126 1e-08 0.001
3926 4127 4126 1e-08 0.001
3926 3927 4128 1e-08 0.001
3926 4128 4127 1e-08 0.001
3927 3928 4128 1e-08 0.001
3928 4129 4128 1e-08 0.001
3928 3929 4130 1e-08 0.001
3928 4130 4129 1e-08 0.001
3929 3930 4130 1e-08 0.001
3930 4131 4130 1e-08 0.001
3930 3931 4132 1e-08 0.001
3930 4132 4131 1e-08 0.001
3931 3932 4132 1e-08 0.001
3932 4133 4132 1e-08 0.001
3932 3933 4134 1e-08 0.001
3932 4134 4133 1e-08 0.001
3933 3934 4134 1e-08 0.001
3934 4135 4134 1e-08 0.001
3934 3935 4136 1e-08 0.001
3934 4136 4135 1e-08 0.001
3935 3936 4136 1e-08 0.001
3936 4137 4136 1e-08 0.001
3936 3937 4138 1e-08 0.001
3936 4138 4137 1e-08 0.001
3937 3938 4138 1e-08 0.001
3938 4139 4138 1e-08 0.001
3938 3939 4140 1e-08 0.001
3938 4140 4139 1e-08 0.001
3939 3940 4140 1e-08 0.001
3940 4141 4140 1e-08 0.001
3940 3941 4142 1e-08 0.001
3940 4142 4141 1e-08 0.001
3941 3942 4142 1e-08 0.001
3942 4143 4142 1e-08 0.001
3942 3943 4144 1e-08 0.001
3942 4144 4143 1e-08 0.001
3943 3944 4144 1e-08 0.001
3944 4145 4144 1e-08 0.001
3944 3945 4146 1e-08 0.001
3944 4146 4145 1e-08 0.001
3945 3946 4146 1e-08 0.001
3946 4147 4146 1e-08 0.001
3946 3947 4148 1e-08 0.001
3946 4148 4147 1e-08 0.001
3947 3948 4148 1e-08 0.001
3948 4149 4148 1e-08 0.001
3948 3949 4150 1e-08 0.001
3948 4150 4149 1e-08 0.001
3949 3950 4150 1e-08 0.001
3950 4151 4150 1e-08 0.001
3950 3951 4152 1e-08 0.001
3950 4152 4151 1e-08 0.001
3951 3952 4152 1e-08 0.001
3952 4153 4152 1e-08 0.001
3952 3953 4154 1e-08 0.001
3952 4154 4153 1e-08 0.001
3953 3954 4154 1e-08 0.001
3954 4155 4154 1e-08 0.001
3954 3955 4156 1e-08 0.001
3954 4156 4155 1e-08 0.001
3955 3956 4156 1e-08 0.001
3956 4157 4156 1e-08 0.001
3956 3957 4158 1e-08 0.001
3956 4158 4157 1e-08 0.001
3957 3958 4158 1e-08 0.001
3958 4159 4158 1e-08 0.001
3958 3959 4160 1e-08 0.001
3958 4160 4159 1e-08 0.001
3959 3960 4160 1e-08 0.001
3960 4161 4160 1e-08 0.001
3960 3961 4162 1e-08 0.001
3960 4162 4161 1e-08 0.001
3961 3962 4162 1e-08 0.001
3962 4163 4162 1e-08 0.001
3962 3963 4164 1e-08 0.001
3962 4164 4163 1e-08 0.001
3963 3964 4164 1e-08 0.001
3964 4165 4164 1e-08 0.001
3964 3965 4166 1e-08 0.001
3964 4166 4165 1e-08 0.001
3965 3966 4166 1e-08 0.001
3966 4167 4166 1e-08 0.001
3966 3967 4168 1e-08 0.001
3966 4168 4167 1e-08 0.001
3967 3968 4168 1e-08 0.001
3968 4169 4168 1e-08 0.001
3968 3969 4170 1e-08 0.001
3968 4170 4169 1e-08 0.001
3969 3970 4170 1e-08 0.001
3970 4171 4170 1e-08 0.001
3970 3971 4172 1e-08 0.001
3970 4172 4171 1e-08 0.001
3971 3972 4172 1e-08 0.001
3972 4173 4172 1e-08 0.001
3972 3973 4174 1e-08 0.001
3972 4174 4173 1e-08 0.001
3973 3974 4174 1e-08 0.001
3974 4175 4174 1e-08 0.001
3974 3975 4176 1e-08 0.001
3974 4176 4175 1e-08 0.001
3975 3976 4176 1e-08 0.001
3976 4177 4176 1e-08 0.001
3976 3977 4178 1e-08 0.001
3976 4178 4177 1e-08 0.001
3977 3978 4178 1e-08 0.001
3978 4179 4178 1e-08 0.001
3978 3979 4180 1e-08 0.001
3978 4180 4179 1e-08 0.001
3979 3980 4180 1e-08 0.001
3980 4181 4180 1e-08 0.001
3980 3981 4182 1e-08 0.001
3980 4182 4181 1e-08 0.001
3981 3982 4182 1e-08 0.001
3982 4183 4182 1e-08 0.001
3982 3983 4184 1e-08 0.001
3982 4184 4183 1e-08 0.001
3983 3984 4184 1e-08 0.001
3984 4185 4184 1e-08 0.001
3984 3985 4186 1e-08 0.001
3984 4186 4185 1e-08 0.001
3985 3986 4186 1e-08 0.001
3986 4187 4186 1e-08 0.001
3986 3987 4188 1e-08 0.001
3986 4188 4187 1e-08 0.001
3987 3988 4188 1e-08 0.001
3988 4189 4188 1e-08 0.001
3988 3989 4190 1e-08 0.001
3988 4190 4189 1e-08 0.001
3989 3990 4190 1e-08 0.001
3990 4191 4190 1e-08 0.001
3990 3991 4192 1e-08 0.001
3990 4192 4191 1e-08 0.001
3991 3992 4192 1e-08 0.001
3992 4193 4192 1e-08 0.001
3992 3993 4194 1e-08 0.001
3992 4194 4193 1e-08 0.001
3993 3994 4194 1e-08 0.001
3994 4195 4194 1e-08 0.001
3994 3995 4196 1e-08 0.001
3994 4196 4195 1e-08 0.001
3995 3996 4196 1e-08 0.001
3996 4197 4196 1e-08 0.001
3996 3997 4198 1e-08 0.001
3996 4198 4197 1e-08 0.001
3997 3998 4198 1e-08 0.001
3998 4199 4198 1e-08 0.001
3998 3999 4200 1e-08 0.001
3998 4200 4199 1e-08 0.001
3999 4000 4200 1e-08 0.001
4000 4201 4200 1e-08 0.001
4000 4001 4202 1e-08 0.001
4000 4202 4201 1e-08 0.001
4001 4002 4202 1e-08 0.001
4002 4203 4202 1e-08 0.001
4002 4003 4204 1e-08 0.001
4002 4204 4203 1e-08 0.001
4003 4004 4204 1e-08 0.001
4004 4205 4204 1e-08 0.001
4004 4005 4206 1e-08 0.001
4004 4206 4205 1e-08 0.001
4005 4006 4206 1e-08 0.001
4006 4207 4206 1e-08 0.001
4006 4007 4208 1e-08 0.001
4006 4208 4207 1e-08 0.001
4007 4008 4208 1e-08 0.001
4008 4209 4208 1e-08 0.001
4008 4009 4210 1e-08 0.001
4008 4210 4209 1e-08 0.001
4009 4010 4210 1e-08 0.001
4010 4211 4210 1e-08 0.001
4010 4011 4212 1e-08 0.001
4010 4212 4211 1e-08 0.001
4011 4012 4212 1e-08 0.001
4012 4213 4212 1e-08 0.001
4012 4013 4214 1e-08 0.001
4012 4214 4213 1e-08 0.001
4013 4014 4214 1e-08 0.001
4014 4215 4214 1e-08 0.001
4014 4015 4216 1e-08 0.001
4014 4216 4215 1e-08 0.001
4015 4016 4216 1e-08 0.001
4016 4217 4216 1e-08 0.001
4016 4017 4218 1e-08 0.001
4016 4218 4217 1e-08 0.001
4017 4018 4218 1e-08 0.001
4018 4219 4218 1e-08 0.001
4018 4019 4220 1e-08 0.001
4018 4220 4219 1e-08 0.001

