
[TITLE]
;;Project Title/Notes
Flat 1D-2D Coupled Road-Culvert Demo
100 m (Y) x 1000 m (X) FLAT plain (zero slope). Transverse roadway
embankment 0.5 m high at X = 500, spanning the full width.
A 500 m circular culvert (50 x 10 m segments) runs along Y = 50 with
its invert AT the ground surface, passing under the road like a pipe
at grade. Four pipe junctions are 2D-coupled: the ends J_P00 / J_P50
and the two road-flanking nodes J_P24 / J_P26, so ponded water enters
the culvert upstream of the road and discharges back onto the mesh on
the lee side. Rainfall (SCS Type II 24-hour, 100 mm) is auto-broadcast
to every 2D cell. The mesh uses an ALTERNATING (union-jack) diagonal so
a uniform problem gives a symmetric response (a single fixed diagonal
breaks N-S symmetry and drifts water toward one edge). Every mesh edge
along X = 1000 carries a NORMAL_FLOW boundary with a nonzero outlet
slope so the flat basin still drains. 2D state is written to
road_culvert.2d.h5 for animation in the GUI.

[OPTIONS]
;;Option               Value
FLOW_UNITS           CMS
INFILTRATION         HORTON
FLOW_ROUTING         DYNWAVE
LINK_OFFSETS         DEPTH
MIN_SLOPE            0
ALLOW_PONDING        NO
SKIP_STEADY_STATE    NO

IGNORE_RAINFALL      NO
IGNORE_SNOWMELT      NO
IGNORE_GROUNDWATER   NO
IGNORE_RDII          NO
IGNORE_ROUTING       NO
IGNORE_QUALITY       NO

START_DATE           01/01/2026
START_TIME           00:00:00
REPORT_START_DATE    01/01/2026
REPORT_START_TIME    00:00:00
END_DATE             01/01/2026
END_TIME             18:00:00
SWEEP_START          1/1
SWEEP_END            1/1
DRY_DAYS             0
REPORT_STEP          0:15:00
WET_STEP             0:00:30
DRY_STEP             0:05:00
ROUTING_STEP         0:00:02
RULE_STEP            0:00:00

INERTIAL_DAMPING     PARTIAL
NORMAL_FLOW_LIMITED  BOTH
FORCE_MAIN_EQUATION  H-W
SURCHARGE_METHOD     DYNAMIC_SLOT
VARIABLE_STEP        0.75
LENGTHENING_STEP     0
MIN_SURFAREA         0
MAX_TRIALS           8
HEAD_TOLERANCE       0.0015
SYS_FLOW_TOL         5
LAT_FLOW_TOL         5
MINIMUM_STEP         0.5
THREADS              1
DPS_CELERITY         25.0000
DPS_ALPHA            3.0000
DPS_DECAY_TIME       0.5000
NODE_CONTINUITY      SEMI_IMPLICIT
NUMBER_OF_THREADS    0

[EVAPORATION]
;;Type       Parameters
;;---------- ----------
CONSTANT     0.0000
DRY_ONLY     NO

[RAINGAGES]
;;Name             Format       Intvl    SCF      Source          
;;---------------- ------------ -------- -------- ----------------
GAGE1            INTENSITY    0:15     1.00     TIMESERIES STORM

[JUNCTIONS]
;;Name             Elev         MaxDepth     InitDepth    SurDepth     Aponded     
;;---------------- ------------ ------------ ------------ ------------ ------------
J_P00                  0.0000       1.0000       0.0000       0.0000       0.0000
J_P01                  0.0000       1.0000       0.0000    1000.0000       0.0000
J_P02                  0.0000       1.0000       0.0000    1000.0000       0.0000
J_P03                  0.0000       1.0000       0.0000    1000.0000       0.0000
J_P04                  0.0000       1.0000       0.0000    1000.0000       0.0000
J_P05                  0.0000       1.0000       0.0000    1000.0000       0.0000
J_P06                  0.0000       1.0000       0.0000    1000.0000       0.0000
J_P07                  0.0000       1.0000       0.0000    1000.0000       0.0000
J_P08                  0.0000       1.0000       0.0000    1000.0000       0.0000
J_P09                  0.0000       1.0000       0.0000    1000.0000       0.0000
J_P10                  0.0000       1.0000       0.0000    1000.0000       0.0000
J_P11                  0.0000       1.0000       0.0000    1000.0000       0.0000
J_P12                  0.0000       1.0000       0.0000    1000.0000       0.0000
J_P13                  0.0000       1.0000       0.0000    1000.0000       0.0000
J_P14                  0.0000       1.0000       0.0000    1000.0000       0.0000
J_P15                  0.0000       1.0000       0.0000    1000.0000       0.0000
J_P16                  0.0000       1.0000       0.0000    1000.0000       0.0000
J_P17                  0.0000       1.0000       0.0000    1000.0000       0.0000
J_P18                  0.0000       1.0000       0.0000    1000.0000       0.0000
J_P19                  0.0000       1.0000       0.0000    1000.0000       0.0000
J_P20                  0.0000       1.0000       0.0000    1000.0000       0.0000
J_P21                  0.0000       1.0000       0.0000    1000.0000       0.0000
J_P22                  0.0000       1.0000       0.0000    1000.0000       0.0000
J_P23                  0.0000       1.0000       0.0000    1000.0000       0.0000
J_P24                  0.0000       1.5000       0.0000    1000.0000       0.0000
J_P25                  0.0000       1.5000       0.0000    1000.0000       0.0000
J_P26                  0.0000       1.0000       0.0000    1000.0000       0.0000
J_P27                  0.0000       1.0000       0.0000    1000.0000       0.0000
J_P28                  0.0000       1.0000       0.0000    1000.0000       0.0000
J_P29                  0.0000       1.0000       0.0000    1000.0000       0.0000
J_P30                  0.0000       1.0000       0.0000    1000.0000       0.0000
J_P31                  0.0000       1.0000       0.0000    1000.0000       0.0000
J_P32                  0.0000       1.0000       0.0000    1000.0000       0.0000
J_P33                  0.0000       1.0000       0.0000    1000.0000       0.0000
J_P34                  0.0000       1.0000       0.0000    1000.0000       0.0000
J_P35                  0.0000       1.0000       0.0000    1000.0000       0.0000
J_P36                  0.0000       1.0000       0.0000    1000.0000       0.0000
J_P37                  0.0000       1.0000       0.0000    1000.0000       0.0000
J_P38                  0.0000       1.0000       0.0000    1000.0000       0.0000
J_P39                  0.0000       1.0000       0.0000    1000.0000       0.0000
J_P40                  0.0000       1.0000       0.0000    1000.0000       0.0000
J_P41                  0.0000       1.0000       0.0000    1000.0000       0.0000
J_P42                  0.0000       1.0000       0.0000    1000.0000       0.0000
J_P43                  0.0000       1.0000       0.0000    1000.0000       0.0000
J_P44                  0.0000       1.0000       0.0000    1000.0000       0.0000
J_P45                  0.0000       1.0000       0.0000    1000.0000       0.0000
J_P46                  0.0000       1.0000       0.0000    1000.0000       0.0000
J_P47                  0.0000       1.0000       0.0000    1000.0000       0.0000
J_P48                  0.0000       1.0000       0.0000    1000.0000       0.0000
J_P49                  0.0000       1.0000       0.0000    1000.0000       0.0000

[OUTFALLS]
;;Name             Elev         Type         Gated   
;;---------------- ------------ ------------ --------
J_P50                  0.0000 FREE         NO

[CONDUITS]
;;Name             FromNode         ToNode           Length       Roughness    InOffset     OutOffset    InitFlow   MaxFlow   
;;---------------- ---------------- ---------------- ------------ ------------ ------------ ------------ ---------- ----------
C_P00            J_P00            J_P01                 10.0000     0.013000       0.0000       0.0000     0.0000     0.0000
C_P01            J_P01            J_P02                 10.0000     0.013000       0.0000       0.0000     0.0000     0.0000
C_P02            J_P02            J_P03                 10.0000     0.013000       0.0000       0.0000     0.0000     0.0000
C_P03            J_P03            J_P04                 10.0000     0.013000       0.0000       0.0000     0.0000     0.0000
C_P04            J_P04            J_P05                 10.0000     0.013000       0.0000       0.0000     0.0000     0.0000
C_P05            J_P05            J_P06                 10.0000     0.013000       0.0000       0.0000     0.0000     0.0000
C_P06            J_P06            J_P07                 10.0000     0.013000       0.0000       0.0000     0.0000     0.0000
C_P07            J_P07            J_P08                 10.0000     0.013000       0.0000       0.0000     0.0000     0.0000
C_P08            J_P08            J_P09                 10.0000     0.013000       0.0000       0.0000     0.0000     0.0000
C_P09            J_P09            J_P10                 10.0000     0.013000       0.0000       0.0000     0.0000     0.0000
C_P10            J_P10            J_P11                 10.0000     0.013000       0.0000       0.0000     0.0000     0.0000
C_P11            J_P11            J_P12                 10.0000     0.013000       0.0000       0.0000     0.0000     0.0000
C_P12            J_P12            J_P13                 10.0000     0.013000       0.0000       0.0000     0.0000     0.0000
C_P13            J_P13            J_P14                 10.0000     0.013000       0.0000       0.0000     0.0000     0.0000
C_P14            J_P14            J_P15                 10.0000     0.013000       0.0000       0.0000     0.0000     0.0000
C_P15            J_P15            J_P16                 10.0000     0.013000       0.0000       0.0000     0.0000     0.0000
C_P16            J_P16            J_P17                 10.0000     0.013000       0.0000       0.0000     0.0000     0.0000
C_P17            J_P17            J_P18                 10.0000     0.013000       0.0000       0.0000     0.0000     0.0000
C_P18            J_P18            J_P19                 10.0000     0.013000       0.0000       0.0000     0.0000     0.0000
C_P19            J_P19            J_P20                 10.0000     0.013000       0.0000       0.0000     0.0000     0.0000
C_P20            J_P20            J_P21                 10.0000     0.013000       0.0000       0.0000     0.0000     0.0000
C_P21            J_P21            J_P22                 10.0000     0.013000       0.0000       0.0000     0.0000     0.0000
C_P22            J_P22            J_P23                 10.0000     0.013000       0.0000       0.0000     0.0000     0.0000
C_P23            J_P23            J_P24                 10.0000     0.013000       0.0000       0.0000     0.0000     0.0000
C_P24            J_P24            J_P25                 10.0000     0.013000       0.0000       0.0000     0.0000     0.0000
C_P25            J_P25            J_P26                 10.0000     0.013000       0.0000       0.0000     0.0000     0.0000
C_P26            J_P26            J_P27                 10.0000     0.013000       0.0000       0.0000     0.0000     0.0000
C_P27            J_P27            J_P28                 10.0000     0.013000       0.0000       0.0000     0.0000     0.0000
C_P28            J_P28            J_P29                 10.0000     0.013000       0.0000       0.0000     0.0000     0.0000
C_P29            J_P29            J_P30                 10.0000     0.013000       0.0000       0.0000     0.0000     0.0000
C_P30            J_P30            J_P31                 10.0000     0.013000       0.0000       0.0000     0.0000     0.0000
C_P31            J_P31            J_P32                 10.0000     0.013000       0.0000       0.0000     0.0000     0.0000
C_P32            J_P32            J_P33                 10.0000     0.013000       0.0000       0.0000     0.0000     0.0000
C_P33            J_P33            J_P34                 10.0000     0.013000       0.0000       0.0000     0.0000     0.0000
C_P34            J_P34            J_P35                 10.0000     0.013000       0.0000       0.0000     0.0000     0.0000
C_P35            J_P35            J_P36                 10.0000     0.013000       0.0000       0.0000     0.0000     0.0000
C_P36            J_P36            J_P37                 10.0000     0.013000       0.0000       0.0000     0.0000     0.0000
C_P37            J_P37            J_P38                 10.0000     0.013000       0.0000       0.0000     0.0000     0.0000
C_P38            J_P38            J_P39                 10.0000     0.013000       0.0000       0.0000     0.0000     0.0000
C_P39            J_P39            J_P40                 10.0000     0.013000       0.0000       0.0000     0.0000     0.0000
C_P40            J_P40            J_P41                 10.0000     0.013000       0.0000       0.0000     0.0000     0.0000
C_P41            J_P41            J_P42                 10.0000     0.013000       0.0000       0.0000     0.0000     0.0000
C_P42            J_P42            J_P43                 10.0000     0.013000       0.0000       0.0000     0.0000     0.0000
C_P43            J_P43            J_P44                 10.0000     0.013000       0.0000       0.0000     0.0000     0.0000
C_P44            J_P44            J_P45                 10.0000     0.013000       0.0000       0.0000     0.0000     0.0000
C_P45            J_P45            J_P46                 10.0000     0.013000       0.0000       0.0000     0.0000     0.0000
C_P46            J_P46            J_P47                 10.0000     0.013000       0.0000       0.0000     0.0000     0.0000
C_P47            J_P47            J_P48                 10.0000     0.013000       0.0000       0.0000     0.0000     0.0000
C_P48            J_P48            J_P49                 10.0000     0.013000       0.0000       0.0000     0.0000     0.0000
C_P49            J_P49            J_P50                 10.0000     0.013000       0.0000       0.0000     0.0000     0.0000

[XSECTIONS]
;;Link             Shape            Geom1        Geom2        Geom3        Geom4        Barrels 
;;---------------- ---------------- ------------ ------------ ------------ ------------ --------
C_P00            CIRCULAR               0.1500       0.0000       0.0000       0.0000        1
C_P01            CIRCULAR               0.1500       0.0000       0.0000       0.0000        1
C_P02            CIRCULAR               0.1500       0.0000       0.0000       0.0000        1
C_P03            CIRCULAR               0.1500       0.0000       0.0000       0.0000        1
C_P04            CIRCULAR               0.1500       0.0000       0.0000       0.0000        1
C_P05            CIRCULAR               0.1500       0.0000       0.0000       0.0000        1
C_P06            CIRCULAR               0.1500       0.0000       0.0000       0.0000        1
C_P07            CIRCULAR               0.1500       0.0000       0.0000       0.0000        1
C_P08            CIRCULAR               0.1500       0.0000       0.0000       0.0000        1
C_P09            CIRCULAR               0.1500       0.0000       0.0000       0.0000        1
C_P10            CIRCULAR               0.1500       0.0000       0.0000       0.0000        1
C_P11            CIRCULAR               0.1500       0.0000       0.0000       0.0000        1
C_P12            CIRCULAR               0.1500       0.0000       0.0000       0.0000        1
C_P13            CIRCULAR               0.1500       0.0000       0.0000       0.0000        1
C_P14            CIRCULAR               0.1500       0.0000       0.0000       0.0000        1
C_P15            CIRCULAR               0.1500       0.0000       0.0000       0.0000        1
C_P16            CIRCULAR               0.1500       0.0000       0.0000       0.0000        1
C_P17            CIRCULAR               0.1500       0.0000       0.0000       0.0000        1
C_P18            CIRCULAR               0.1500       0.0000       0.0000       0.0000        1
C_P19            CIRCULAR               0.1500       0.0000       0.0000       0.0000        1
C_P20            CIRCULAR               0.1500       0.0000       0.0000       0.0000        1
C_P21            CIRCULAR               0.1500       0.0000       0.0000       0.0000        1
C_P22            CIRCULAR               0.1500       0.0000       0.0000       0.0000        1
C_P23            CIRCULAR               0.1500       0.0000       0.0000       0.0000        1
C_P24            CIRCULAR               0.1500       0.0000       0.0000       0.0000        1
C_P25            CIRCULAR               0.1500       0.0000       0.0000       0.0000        1
C_P26            CIRCULAR               0.1500       0.0000       0.0000       0.0000        1
C_P27            CIRCULAR               0.1500       0.0000       0.0000       0.0000        1
C_P28            CIRCULAR               0.1500       0.0000       0.0000       0.0000        1
C_P29            CIRCULAR               0.1500       0.0000       0.0000       0.0000        1
C_P30            CIRCULAR               0.1500       0.0000       0.0000       0.0000        1
C_P31            CIRCULAR               0.1500       0.0000       0.0000       0.0000        1
C_P32            CIRCULAR               0.1500       0.0000       0.0000       0.0000        1
C_P33            CIRCULAR               0.1500       0.0000       0.0000       0.0000        1
C_P34            CIRCULAR               0.1500       0.0000       0.0000       0.0000        1
C_P35            CIRCULAR               0.1500       0.0000       0.0000       0.0000        1
C_P36            CIRCULAR               0.1500       0.0000       0.0000       0.0000        1
C_P37            CIRCULAR               0.1500       0.0000       0.0000       0.0000        1
C_P38            CIRCULAR               0.1500       0.0000       0.0000       0.0000        1
C_P39            CIRCULAR               0.1500       0.0000       0.0000       0.0000        1
C_P40            CIRCULAR               0.1500       0.0000       0.0000       0.0000        1
C_P41            CIRCULAR               0.1500       0.0000       0.0000       0.0000        1
C_P42            CIRCULAR               0.1500       0.0000       0.0000       0.0000        1
C_P43            CIRCULAR               0.1500       0.0000       0.0000       0.0000        1
C_P44            CIRCULAR               0.1500       0.0000       0.0000       0.0000        1
C_P45            CIRCULAR               0.1500       0.0000       0.0000       0.0000        1
C_P46            CIRCULAR               0.1500       0.0000       0.0000       0.0000        1
C_P47            CIRCULAR               0.1500       0.0000       0.0000       0.0000        1
C_P48            CIRCULAR               0.1500       0.0000       0.0000       0.0000        1
C_P49            CIRCULAR               0.1500       0.0000       0.0000       0.0000        1

[REPORT]
;;Keyword          Value
DISABLED             NO
INPUT                NO
CONTINUITY           YES
FLOWSTATS            YES
CONTROLS             NO
AVERAGES             NO
SUBCATCHMENTS        ALL
NODES                ALL
LINKS                ALL

[TIMESERIES]
;;Name             Date/Time            Value       
;;---------------- -------------------- ------------
STORM            0:00     1.100000
STORM            0:15     1.100000
STORM            0:30     1.100000
STORM            0:45     1.100000
STORM            0:60     1.100000
STORM            1:15     1.100000
STORM            1:30     1.100000
STORM            1:45     1.100000
STORM            2:00     1.250000
STORM            2:15     1.250000
STORM            2:30     1.250000
STORM            2:45     1.250000
STORM            3:00     1.400000
STORM            3:15     1.400000
STORM            3:30     1.400000
STORM            3:45     1.400000
STORM            3:60     1.550000
STORM            4:15     1.550000
STORM            4:30     1.550000
STORM            4:45     1.550000
STORM            5:00     1.600000
STORM            5:15     1.600000
STORM            5:30     1.600000
STORM            5:45     1.600000
STORM            6:00     1.800000
STORM            6:15     1.800000
STORM            6:30     1.800000
STORM            6:45     1.800000
STORM            6:60     2.000000
STORM            7:15     2.000000
STORM            7:30     2.400000
STORM            7:45     2.400000
STORM            8:00     2.600000
STORM            8:15     2.600000
STORM            8:30     2.800000
STORM            8:45     2.800000
STORM            9:00     3.200000
STORM            9:15     3.200000
STORM            9:30     3.600000
STORM            9:45     3.600000
STORM            9:60     4.800000
STORM            10:15     4.400000
STORM            10:30     6.000000
STORM            10:45    30.000000
STORM            11:00    80.000000
STORM            11:15   110.000000
STORM            11:30   250.000000
STORM            11:45   500.000000
STORM            12:00   250.000000
STORM            12:15   110.000000
STORM            12:30    80.000000
STORM            12:45    30.000000
STORM            12:60     5.400000
STORM            13:15     5.400000
STORM            13:30     4.200000
STORM            13:45     4.200000
STORM            14:00     3.000000
STORM            14:15     3.000000
STORM            14:30     3.000000
STORM            14:45     3.000000
STORM            15:00     3.000000
STORM            15:15     3.000000
STORM            15:30     3.000000
STORM            15:45     3.000000
STORM            15:60     1.800000
STORM            16:15     1.800000
STORM            16:30     1.800000
STORM            16:45     1.800000
STORM            17:00     1.800000
STORM            17:15     1.800000
STORM            17:30     1.800000
STORM            17:45     1.800000
STORM            18:00     1.800000
STORM            18:15     1.800000
STORM            18:30     1.800000
STORM            18:45     1.800000
STORM            18:60     1.800000
STORM            19:15     1.800000
STORM            19:30     1.800000
STORM            19:45     1.800000
STORM            20:00     1.200000
STORM            20:15     1.200000
STORM            20:30     1.200000
STORM            20:45     1.200000
STORM            21:00     1.200000
STORM            21:15     1.200000
STORM            21:30     1.200000
STORM            21:45     1.200000
STORM            21:60     1.200000
STORM            22:15     1.200000
STORM            22:30     1.200000
STORM            22:45     1.200000
STORM            23:00     1.200000
STORM            23:15     1.200000
STORM            23:30     1.200000
STORM            23:45     1.200000
STORM            24:00     0.000000

[MAP]
DIMENSIONS -50.0000           -20.0000           1050.0000          120.0000          
Units      METERS

[COORDINATES]
;;Node           X-Coord            Y-Coord           
;;-------------- ------------------ ------------------
J_P00            250.0000           50.0000           
J_P01            260.0000           50.0000           
J_P02            270.0000           50.0000           
J_P03            280.0000           50.0000           
J_P04            290.0000           50.0000           
J_P05            300.0000           50.0000           
J_P06            310.0000           50.0000           
J_P07            320.0000           50.0000           
J_P08            330.0000           50.0000           
J_P09            340.0000           50.0000           
J_P10            350.0000           50.0000           
J_P11            360.0000           50.0000           
J_P12            370.0000           50.0000           
J_P13            380.0000           50.0000           
J_P14            390.0000           50.0000           
J_P15            400.0000           50.0000           
J_P16            410.0000           50.0000           
J_P17            420.0000           50.0000           
J_P18            430.0000           50.0000           
J_P19            440.0000           50.0000           
J_P20            450.0000           50.0000           
J_P21            460.0000           50.0000           
J_P22            470.0000           50.0000           
J_P23            480.0000           50.0000           
J_P24            490.0000           50.0000           
J_P25            500.0000           50.0000           
J_P26            510.0000           50.0000           
J_P27            520.0000           50.0000           
J_P28            530.0000           50.0000           
J_P29            540.0000           50.0000           
J_P30            550.0000           50.0000           
J_P31            560.0000           50.0000           
J_P32            570.0000           50.0000           
J_P33            580.0000           50.0000           
J_P34            590.0000           50.0000           
J_P35            600.0000           50.0000           
J_P36            610.0000           50.0000           
J_P37            620.0000           50.0000           
J_P38            630.0000           50.0000           
J_P39            640.0000           50.0000           
J_P40            650.0000           50.0000           
J_P41            660.0000           50.0000           
J_P42            670.0000           50.0000           
J_P43            680.0000           50.0000           
J_P44            690.0000           50.0000           
J_P45            700.0000           50.0000           
J_P46            710.0000           50.0000           
J_P47            720.0000           50.0000           
J_P48            730.0000           50.0000           
J_P49            740.0000           50.0000           
J_P50            750.0000           50.0000           

[SYMBOLS]
;;Gage           X-Coord            Y-Coord           
;;-------------- ------------------ ------------------
GAGE1            0.0000             0.0000            

[2D_OPTIONS]
;;Parameter            Value
MAX_TIMESTEP           10
MIN_TIMESTEP           0.001
REL_TOLERANCE          0.0001
ABS_TOLERANCE          1e-06
DRY_DEPTH              0.0001
LIMITER_EPSILON        1e-06
COUPLING_CD            0.65
MAX_KRYLOV_DIM         30
COUPLING_INTERVAL      0
MAX_CVODE_STEPS        500
LINEAR_SOLVER          GMRES
PRECONDITIONER         JACOBI
REPORT_2D              YES
OUTPUT_FILE            road_culvert.2d.h5

[2D_VERTICES]
;;X                Y                  Z              TAG
0                  0                  1             
5                  0                  1             
10                 0                  1             
15                 0                  1             
20                 0                  1             
25                 0                  1             
30                 0                  1             
35                 0                  1             
40                 0                  1             
45                 0                  1             
50                 0                  1             
55                 0                  1             
60                 0                  1             
65                 0                  1             
70                 0                  1             
75                 0                  1             
80                 0                  1             
85                 0                  1             
90                 0                  1             
95                 0                  1             
100                0                  1             
105                0                  1             
110                0                  1             
115                0                  1             
120                0                  1             
125                0                  1             
130                0                  1             
135                0                  1             
140                0                  1             
145                0                  1             
150                0                  1             
155                0                  1             
160                0                  1             
165                0                  1             
170                0                  1             
175                0                  1             
180                0                  1             
185                0                  1             
190                0                  1             
195                0                  1             
200                0                  1             
205                0                  1             
210                0                  1             
215                0                  1             
220                0                  1             
225                0                  1             
230                0                  1             
235                0                  1             
240                0                  1             
245                0                  1             
250                0                  1             
255                0                  1             
260                0                  1             
265                0                  1             
270                0                  1             
275                0                  1             
280                0                  1             
285                0                  1             
290                0                  1             
295                0                  1             
300                0                  1             
305                0                  1             
310                0                  1             
315                0                  1             
320                0                  1             
325                0                  1             
330                0                  1             
335                0                  1             
340                0                  1             
345                0                  1             
350                0                  1             
355                0                  1             
360                0                  1             
365                0                  1             
370                0                  1             
375                0                  1             
380                0                  1             
385                0                  1             
390                0                  1             
395                0                  1             
400                0                  1             
405                0                  1             
410                0                  1             
415                0                  1             
420                0                  1             
425                0                  1             
430                0                  1             
435                0                  1             
440                0                  1             
445                0                  1             
450                0                  1             
455                0                  1             
460                0                  1             
465                0                  1             
470                0                  1             
475                0                  1             
480                0                  1             
485                0                  1             
490                0                  1             
495                0                  1.5           
500                0                  1.5           
505                0                  1             
510                0                  1             
515                0                  1             
520                0                  1             
525                0                  1             
530                0                  1             
535                0                  1             
540                0                  1             
545                0                  1             
550                0                  1             
555                0                  1             
560                0                  1             
565                0                  1             
570                0                  1             
575                0                  1             
580                0                  1             
585                0                  1             
590                0                  1             
595                0                  1             
600                0                  1             
605                0                  1             
610                0                  1             
615                0                  1             
620                0                  1             
625                0                  1             
630                0                  1             
635                0                  1             
640                0                  1             
645                0                  1             
650                0                  1             
655                0                  1             
660                0                  1             
665                0                  1             
670                0                  1             
675                0                  1             
680                0                  1             
685                0                  1             
690                0                  1             
695                0                  1             
700                0                  1             
705                0                  1             
710                0                  1             
715                0                  1             
720                0                  1             
725                0                  1             
730                0                  1             
735                0                  1             
740                0                  1             
745                0                  1             
750                0                  1             
755                0                  1             
760                0                  1             
765                0                  1             
770                0                  1             
775                0                  1             
780                0                  1             
785                0                  1             
790                0                  1             
795                0                  1             
800                0                  1             
805                0                  1             
810                0                  1             
815                0                  1             
820                0                  1             
825                0                  1             
830                0                  1             
835                0                  1             
840                0                  1             
845                0                  1             
850                0                  1             
855                0                  1             
860                0                  1             
865                0                  1             
870                0                  1             
875                0                  1             
880                0                  1             
885                0                  1             
890                0                  1             
895                0                  1             
900                0                  1             
905                0                  1             
910                0                  1             
915                0                  1             
920                0                  1             
925                0                  1             
930                0                  1             
935                0                  1             
940                0                  1             
945                0                  1             
950                0                  1             
955                0                  1             
960                0                  1             
965                0                  1             
970                0                  1             
975                0                  1             
980                0                  1             
985                0                  1             
990                0                  1             
995                0                  1             
1000               0                  1             
0                  5                  1             
5                  5                  1             
10                 5                  1             
15                 5                  1             
20                 5                  1             
25                 5                  1             
30                 5                  1             
35                 5                  1             
40                 5                  1             
45                 5                  1             
50                 5                  1             
55                 5                  1             
60                 5                  1             
65                 5                  1             
70                 5                  1             
75                 5                  1             
80                 5                  1             
85                 5                  1             
90                 5                  1             
95                 5                  1             
100                5                  1             
105                5                  1             
110                5                  1             
115                5                  1             
120                5                  1             
125                5                  1             
130                5                  1             
135                5                  1             
140                5                  1             
145                5                  1             
150                5                  1             
155                5                  1             
160                5                  1             
165                5                  1             
170                5                  1             
175                5                  1             
180                5                  1             
185                5                  1             
190                5                  1             
195                5                  1             
200                5                  1             
205                5                  1             
210                5                  1             
215                5                  1             
220                5                  1             
225                5                  1             
230                5                  1             
235                5                  1             
240                5                  1             
245                5                  1             
250                5                  1             
255                5                  1             
260                5                  1             
265                5                  1             
270                5                  1             
275                5                  1             
280                5                  1             
285                5                  1             
290                5                  1             
295                5                  1             
300                5                  1             
305                5                  1             
310                5                  1             
315                5                  1             
320                5                  1             
325                5                  1             
330                5                  1             
335                5                  1             
340                5                  1             
345                5                  1             
350                5                  1             
355                5                  1             
360                5                  1             
365                5                  1             
370                5                  1             
375                5                  1             
380                5                  1             
385                5                  1             
390                5                  1             
395                5                  1             
400                5                  1             
405                5                  1             
410                5                  1             
415                5                  1             
420                5                  1             
425                5                  1             
430                5                  1             
435                5                  1             
440                5                  1             
445                5                  1             
450                5                  1             
455                5                  1             
460                5                  1             
465                5                  1             
470                5                  1             
475                5                  1             
480                5                  1             
485                5                  1             
490                5                  1             
495                5                  1.5           
500                5                  1.5           
505                5                  1             
510                5                  1             
515                5                  1             
520                5                  1             
525                5                  1             
530                5                  1             
535                5                  1             
540                5                  1             
545                5                  1             
550                5                  1             
555                5                  1             
560                5                  1             
565                5                  1             
570                5                  1             
575                5                  1             
580                5                  1             
585                5                  1             
590                5                  1             
595                5                  1             
600                5                  1             
605                5                  1             
610                5                  1             
615                5                  1             
620                5                  1             
625                5                  1             
630                5                  1             
635                5                  1             
640                5                  1             
645                5                  1             
650                5                  1             
655                5                  1             
660                5                  1             
665                5                  1             
670                5                  1             
675                5                  1             
680                5                  1             
685                5                  1             
690                5                  1             
695                5                  1             
700                5                  1             
705                5                  1             
710                5                  1             
715                5                  1             
720                5                  1             
725                5                  1             
730                5                  1             
735                5                  1             
740                5                  1             
745                5                  1             
750                5                  1             
755                5                  1             
760                5                  1             
765                5                  1             
770                5                  1             
775                5                  1             
780                5                  1             
785                5                  1             
790                5                  1             
795                5                  1             
800                5                  1             
805                5                  1             
810                5                  1             
815                5                  1             
820                5                  1             
825                5                  1             
830                5                  1             
835                5                  1             
840                5                  1             
845                5                  1             
850                5                  1             
855                5                  1             
860                5                  1             
865                5                  1             
870                5                  1             
875                5                  1             
880                5                  1             
885                5                  1             
890                5                  1             
895                5                  1             
900                5                  1             
905                5                  1             
910                5                  1             
915                5                  1             
920                5                  1             
925                5                  1             
930                5                  1             
935                5                  1             
940                5                  1             
945                5                  1             
950                5                  1             
955                5                  1             
960                5                  1             
965                5                  1             
970                5                  1             
975                5                  1             
980                5                  1             
985                5                  1             
990                5                  1             
995                5                  1             
1000               5                  1             
0                  10                 1             
5                  10                 1             
10                 10                 1             
15                 10                 1             
20                 10                 1             
25                 10                 1             
30                 10                 1             
35                 10                 1             
40                 10                 1             
45                 10                 1             
50                 10                 1             
55                 10                 1             
60                 10                 1             
65                 10                 1             
70                 10                 1             
75                 10                 1             
80                 10                 1             
85                 10                 1             
90                 10                 1             
95                 10                 1             
100                10                 1             
105                10                 1             
110                10                 1             
115                10                 1             
120                10                 1             
125                10                 1             
130                10                 1             
135                10                 1             
140                10                 1             
145                10                 1             
150                10                 1             
155                10                 1             
160                10                 1             
165                10                 1             
170                10                 1             
175                10                 1             
180                10                 1             
185                10                 1             
190                10                 1             
195                10                 1             
200                10                 1             
205                10                 1             
210                10                 1             
215                10                 1             
220                10                 1             
225                10                 1             
230                10                 1             
235                10                 1             
240                10                 1             
245                10                 1             
250                10                 1             
255                10                 1             
260                10                 1             
265                10                 1             
270                10                 1             
275                10                 1             
280                10                 1             
285                10                 1             
290                10                 1             
295                10                 1             
300                10                 1             
305                10                 1             
310                10                 1             
315                10                 1             
320                10                 1             
325                10                 1             
330                10                 1             
335                10                 1             
340                10                 1             
345                10                 1             
350                10                 1             
355                10                 1             
360                10                 1             
365                10                 1             
370                10                 1             
375                10                 1             
380                10                 1             
385                10                 1             
390                10                 1             
395                10                 1             
400                10                 1             
405                10                 1             
410                10                 1             
415                10                 1             
420                10                 1             
425                10                 1             
430                10                 1             
435                10                 1             
440                10                 1             
445                10                 1             
450                10                 1             
455                10                 1             
460                10                 1             
465                10                 1             
470                10                 1             
475                10                 1             
480                10                 1             
485                10                 1             
490                10                 1             
495                10                 1.5           
500                10                 1.5           
505                10                 1             
510                10                 1             
515                10                 1             
520                10                 1             
525                10                 1             
530                10                 1             
535                10                 1             
540                10                 1             
545                10                 1             
550                10                 1             
555                10                 1             
560                10                 1             
565                10                 1             
570                10                 1             
575                10                 1             
580                10                 1             
585                10                 1             
590                10                 1             
595                10                 1             
600                10                 1             
605                10                 1             
610                10                 1             
615                10                 1             
620                10                 1             
625                10                 1             
630                10                 1             
635                10                 1             
640                10                 1             
645                10                 1             
650                10                 1             
655                10                 1             
660                10                 1             
665                10                 1             
670                10                 1             
675                10                 1             
680                10                 1             
685                10                 1             
690                10                 1             
695                10                 1             
700                10                 1             
705                10                 1             
710                10                 1             
715                10                 1             
720                10                 1             
725                10                 1             
730                10                 1             
735                10                 1             
740                10                 1             
745                10                 1             
750                10                 1             
755                10                 1             
760                10                 1             
765                10                 1             
770                10                 1             
775                10                 1             
780                10                 1             
785                10                 1             
790                10                 1             
795                10                 1             
800                10                 1             
805                10                 1             
810                10                 1             
815                10                 1             
820                10                 1             
825                10                 1             
830                10                 1             
835                10                 1             
840                10                 1             
845                10                 1             
850                10                 1             
855                10                 1             
860                10                 1             
865                10                 1             
870                10                 1             
875                10                 1             
880                10                 1             
885                10                 1             
890                10                 1             
895                10                 1             
900                10                 1             
905                10                 1             
910                10                 1             
915                10                 1             
920                10                 1             
925                10                 1             
930                10                 1             
935                10                 1             
940                10                 1             
945                10                 1             
950                10                 1             
955                10                 1             
960                10                 1             
965                10                 1             
970                10                 1             
975                10                 1             
980                10                 1             
985                10                 1             
990                10                 1             
995                10                 1             
1000               10                 1             
0                  15                 1             
5                  15                 1             
10                 15                 1             
15                 15                 1             
20                 15                 1             
25                 15                 1             
30                 15                 1             
35                 15                 1             
40                 15                 1             
45                 15                 1             
50                 15                 1             
55                 15                 1             
60                 15                 1             
65                 15                 1             
70                 15                 1             
75                 15                 1             
80                 15                 1             
85                 15                 1             
90                 15                 1             
95                 15                 1             
100                15                 1             
105                15                 1             
110                15                 1             
115                15                 1             
120                15                 1             
125                15                 1             
130                15                 1             
135                15                 1             
140                15                 1             
145                15                 1             
150                15                 1             
155                15                 1             
160                15                 1             
165                15                 1             
170                15                 1             
175                15                 1             
180                15                 1             
185                15                 1             
190                15                 1             
195                15                 1             
200                15                 1             
205                15                 1             
210                15                 1             
215                15                 1             
220                15                 1             
225                15                 1             
230                15                 1             
235                15                 1             
240                15                 1             
245                15                 1             
250                15                 1             
255                15                 1             
260                15                 1             
265                15                 1             
270                15                 1             
275                15                 1             
280                15                 1             
285                15                 1             
290                15                 1             
295                15                 1             
300                15                 1             
305                15                 1             
310                15                 1             
315                15                 1             
320                15                 1             
325                15                 1             
330                15                 1             
335                15                 1             
340                15                 1             
345                15                 1             
350                15                 1             
355                15                 1             
360                15                 1             
365                15                 1             
370                15                 1             
375                15                 1             
380                15                 1             
385                15                 1             
390                15                 1             
395                15                 1             
400                15                 1             
405                15                 1             
410                15                 1             
415                15                 1             
420                15                 1             
425                15                 1             
430                15                 1             
435                15                 1             
440                15                 1             
445                15                 1             
450                15                 1             
455                15                 1             
460                15                 1             
465                15                 1             
470                15                 1             
475                15                 1             
480                15                 1             
485                15                 1             
490                15                 1             
495                15                 1.5           
500                15                 1.5           
505                15                 1             
510                15                 1             
515                15                 1             
520                15                 1             
525                15                 1             
530                15                 1             
535                15                 1             
540                15                 1             
545                15                 1             
550                15                 1             
555                15                 1             
560                15                 1             
565                15                 1             
570                15                 1             
575                15                 1             
580                15                 1             
585                15                 1             
590                15                 1             
595                15                 1             
600                15                 1             
605                15                 1             
610                15                 1             
615                15                 1             
620                15                 1             
625                15                 1             
630                15                 1             
635                15                 1             
640                15                 1             
645                15                 1             
650                15                 1             
655                15                 1             
660                15                 1             
665                15                 1             
670                15                 1             
675                15                 1             
680                15                 1             
685                15                 1             
690                15                 1             
695                15                 1             
700                15                 1             
705                15                 1             
710                15                 1             
715                15                 1             
720                15                 1             
725                15                 1             
730                15                 1             
735                15                 1             
740                15                 1             
745                15                 1             
750                15                 1             
755                15                 1             
760                15                 1             
765                15                 1             
770                15                 1             
775                15                 1             
780                15                 1             
785                15                 1             
790                15                 1             
795                15                 1             
800                15                 1             
805                15                 1             
810                15                 1             
815                15                 1             
820                15                 1             
825                15                 1             
830                15                 1             
835                15                 1             
840                15                 1             
845                15                 1             
850                15                 1             
855                15                 1             
860                15                 1             
865                15                 1             
870                15                 1             
875                15                 1             
880                15                 1             
885                15                 1             
890                15                 1             
895                15                 1             
900                15                 1             
905                15                 1             
910                15                 1             
915                15                 1             
920                15                 1             
925                15                 1             
930                15                 1             
935                15                 1             
940                15                 1             
945                15                 1             
950                15                 1             
955                15                 1             
960                15                 1             
965                15                 1             
970                15                 1             
975                15                 1             
980                15                 1             
985                15                 1             
990                15                 1             
995                15                 1             
1000               15                 1             
0                  20                 1             
5                  20                 1             
10                 20                 1             
15                 20                 1             
20                 20                 1             
25                 20                 1             
30                 20                 1             
35                 20                 1             
40                 20                 1             
45                 20                 1             
50                 20                 1             
55                 20                 1             
60                 20                 1             
65                 20                 1             
70                 20                 1             
75                 20                 1             
80                 20                 1             
85                 20                 1             
90                 20                 1             
95                 20                 1             
100                20                 1             
105                20                 1             
110                20                 1             
115                20                 1             
120                20                 1             
125                20                 1             
130                20                 1             
135                20                 1             
140                20                 1             
145                20                 1             
150                20                 1             
155                20                 1             
160                20                 1             
165                20                 1             
170                20                 1             
175                20                 1             
180                20                 1             
185                20                 1             
190                20                 1             
195                20                 1             
200                20                 1             
205                20                 1             
210                20                 1             
215                20                 1             
220                20                 1             
225                20                 1             
230                20                 1             
235                20                 1             
240                20                 1             
245                20                 1             
250                20                 1             
255                20                 1             
260                20                 1             
265                20                 1             
270                20                 1             
275                20                 1             
280                20                 1             
285                20                 1             
290                20                 1             
295                20                 1             
300                20                 1             
305                20                 1             
310                20                 1             
315                20                 1             
320                20                 1             
325                20                 1             
330                20                 1             
335                20                 1             
340                20                 1             
345                20                 1             
350                20                 1             
355                20                 1             
360                20                 1             
365                20                 1             
370                20                 1             
375                20                 1             
380                20                 1             
385                20                 1             
390                20                 1             
395                20                 1             
400                20                 1             
405                20                 1             
410                20                 1             
415                20                 1             
420                20                 1             
425                20                 1             
430                20                 1             
435                20                 1             
440                20                 1             
445                20                 1             
450                20                 1             
455                20                 1             
460                20                 1             
465                20                 1             
470                20                 1             
475                20                 1             
480                20                 1             
485                20                 1             
490                20                 1             
495                20                 1.5           
500                20                 1.5           
505                20                 1             
510                20                 1             
515                20                 1             
520                20                 1             
525                20                 1             
530                20                 1             
535                20                 1             
540                20                 1             
545                20                 1             
550                20                 1             
555                20                 1             
560                20                 1             
565                20                 1             
570                20                 1             
575                20                 1             
580                20                 1             
585                20                 1             
590                20                 1             
595                20                 1             
600                20                 1             
605                20                 1             
610                20                 1             
615                20                 1             
620                20                 1             
625                20                 1             
630                20                 1             
635                20                 1             
640                20                 1             
645                20                 1             
650                20                 1             
655                20                 1             
660                20                 1             
665                20                 1             
670                20                 1             
675                20                 1             
680                20                 1             
685                20                 1             
690                20                 1             
695                20                 1             
700                20                 1             
705                20                 1             
710                20                 1             
715                20                 1             
720                20                 1             
725                20                 1             
730                20                 1             
735                20                 1             
740                20                 1             
745                20                 1             
750                20                 1             
755                20                 1             
760                20                 1             
765                20                 1             
770                20                 1             
775                20                 1             
780                20                 1             
785                20                 1             
790                20                 1             
795                20                 1             
800                20                 1             
805                20                 1             
810                20                 1             
815                20                 1             
820                20                 1             
825                20                 1             
830                20                 1             
835                20                 1             
840                20                 1             
845                20                 1             
850                20                 1             
855                20                 1             
860                20                 1             
865                20                 1             
870                20                 1             
875                20                 1             
880                20                 1             
885                20                 1             
890                20                 1             
895                20                 1             
900                20                 1             
905                20                 1             
910                20                 1             
915                20                 1             
920                20                 1             
925                20                 1             
930                20                 1             
935                20                 1             
940                20                 1             
945                20                 1             
950                20                 1             
955                20                 1             
960                20                 1             
965                20                 1             
970                20                 1             
975                20                 1             
980                20                 1             
985                20                 1             
990                20                 1             
995                20                 1             
1000               20                 1             
0                  25                 1             
5                  25                 1             
10                 25                 1             
15                 25                 1             
20                 25                 1             
25                 25                 1             
30                 25                 1             
35                 25                 1             
40                 25                 1             
45                 25                 1             
50                 25                 1             
55                 25                 1             
60                 25                 1             
65                 25                 1             
70                 25                 1             
75                 25                 1             
80                 25                 1             
85                 25                 1             
90                 25                 1             
95                 25                 1             
100                25                 1             
105                25                 1             
110                25                 1             
115                25                 1             
120                25                 1             
125                25                 1             
130                25                 1             
135                25                 1             
140                25                 1             
145                25                 1             
150                25                 1             
155                25                 1             
160                25                 1             
165                25                 1             
170                25                 1             
175                25                 1             
180                25                 1             
185                25                 1             
190                25                 1             
195                25                 1             
200                25                 1             
205                25                 1             
210                25                 1             
215                25                 1             
220                25                 1             
225                25                 1             
230                25                 1             
235                25                 1             
240                25                 1             
245                25                 1             
250                25                 1             
255                25                 1             
260                25                 1             
265                25                 1             
270                25                 1             
275                25                 1             
280                25                 1             
285                25                 1             
290                25                 1             
295                25                 1             
300                25                 1             
305                25                 1             
310                25                 1             
315                25                 1             
320                25                 1             
325                25                 1             
330                25                 1             
335                25                 1             
340                25                 1             
345                25                 1             
350                25                 1             
355                25                 1             
360                25                 1             
365                25                 1             
370                25                 1             
375                25                 1             
380                25                 1             
385                25                 1             
390                25                 1             
395                25                 1             
400                25                 1             
405                25                 1             
410                25                 1             
415                25                 1             
420                25                 1             
425                25                 1             
430                25                 1             
435                25                 1             
440                25                 1             
445                25                 1             
450                25                 1             
455                25                 1             
460                25                 1             
465                25                 1             
470                25                 1             
475                25                 1             
480                25                 1             
485                25                 1             
490                25                 1             
495                25                 1.5           
500                25                 1.5           
505                25                 1             
510                25                 1             
515                25                 1             
520                25                 1             
525                25                 1             
530                25                 1             
535                25                 1             
540                25                 1             
545                25                 1             
550                25                 1             
555                25                 1             
560                25                 1             
565                25                 1             
570                25                 1             
575                25                 1             
580                25                 1             
585                25                 1             
590                25                 1             
595                25                 1             
600                25                 1             
605                25                 1             
610                25                 1             
615                25                 1             
620                25                 1             
625                25                 1             
630                25                 1             
635                25                 1             
640                25                 1             
645                25                 1             
650                25                 1             
655                25                 1             
660                25                 1             
665                25                 1             
670                25                 1             
675                25                 1             
680                25                 1             
685                25                 1             
690                25                 1             
695                25                 1             
700                25                 1             
705                25                 1             
710                25                 1             
715                25                 1             
720                25                 1             
725                25                 1             
730                25                 1             
735                25                 1             
740                25                 1             
745                25                 1             
750                25                 1             
755                25                 1             
760                25                 1             
765                25                 1             
770                25                 1             
775                25                 1             
780                25                 1             
785                25                 1             
790                25                 1             
795                25                 1             
800                25                 1             
805                25                 1             
810                25                 1             
815                25                 1             
820                25                 1             
825                25                 1             
830                25                 1             
835                25                 1             
840                25                 1             
845                25                 1             
850                25                 1             
855                25                 1             
860                25                 1             
865                25                 1             
870                25                 1             
875                25                 1             
880                25                 1             
885                25                 1             
890                25                 1             
895                25                 1             
900                25                 1             
905                25                 1             
910                25                 1             
915                25                 1             
920                25                 1             
925                25                 1             
930                25                 1             
935                25                 1             
940                25                 1             
945                25                 1             
950                25                 1             
955                25                 1             
960                25                 1             
965                25                 1             
970                25                 1             
975                25                 1             
980                25                 1             
985                25                 1             
990                25                 1             
995                25                 1             
1000               25                 1             
0                  30                 1             
5                  30                 1             
10                 30                 1             
15                 30                 1             
20                 30                 1             
25                 30                 1             
30                 30                 1             
35                 30                 1             
40                 30                 1             
45                 30                 1             
50                 30                 1             
55                 30                 1             
60                 30                 1             
65                 30                 1             
70                 30                 1             
75                 30                 1             
80                 30                 1             
85                 30                 1             
90                 30                 1             
95                 30                 1             
100                30                 1             
105                30                 1             
110                30                 1             
115                30                 1             
120                30                 1             
125                30                 1             
130                30                 1             
135                30                 1             
140                30                 1             
145                30                 1             
150                30                 1             
155                30                 1             
160                30                 1             
165                30                 1             
170                30                 1             
175                30                 1             
180                30                 1             
185                30                 1             
190                30                 1             
195                30                 1             
200                30                 1             
205                30                 1             
210                30                 1             
215                30                 1             
220                30                 1             
225                30                 1             
230                30                 1             
235                30                 1             
240                30                 1             
245                30                 1             
250                30                 1             
255                30                 1             
260                30                 1             
265                30                 1             
270                30                 1             
275                30                 1             
280                30                 1             
285                30                 1             
290                30                 1             
295                30                 1             
300                30                 1             
305                30                 1             
310                30                 1             
315                30                 1             
320                30                 1             
325                30                 1             
330                30                 1             
335                30                 1             
340                30                 1             
345                30                 1             
350                30                 1             
355                30                 1             
360                30                 1             
365                30                 1             
370                30                 1             
375                30                 1             
380                30                 1             
385                30                 1             
390                30                 1             
395                30                 1             
400                30                 1             
405                30                 1             
410                30                 1             
415                30                 1             
420                30                 1             
425                30                 1             
430                30                 1             
435                30                 1             
440                30                 1             
445                30                 1             
450                30                 1             
455                30                 1             
460                30                 1             
465                30                 1             
470                30                 1             
475                30                 1             
480                30                 1             
485                30                 1             
490                30                 1             
495                30                 1.5           
500                30                 1.5           
505                30                 1             
510                30                 1             
515                30                 1             
520                30                 1             
525                30                 1             
530                30                 1             
535                30                 1             
540                30                 1             
545                30                 1             
550                30                 1             
555                30                 1             
560                30                 1             
565                30                 1             
570                30                 1             
575                30                 1             
580                30                 1             
585                30                 1             
590                30                 1             
595                30                 1             
600                30                 1             
605                30                 1             
610                30                 1             
615                30                 1             
620                30                 1             
625                30                 1             
630                30                 1             
635                30                 1             
640                30                 1             
645                30                 1             
650                30                 1             
655                30                 1             
660                30                 1             
665                30                 1             
670                30                 1             
675                30                 1             
680                30                 1             
685                30                 1             
690                30                 1             
695                30                 1             
700                30                 1             
705                30                 1             
710                30                 1             
715                30                 1             
720                30                 1             
725                30                 1             
730                30                 1             
735                30                 1             
740                30                 1             
745                30                 1             
750                30                 1             
755                30                 1             
760                30                 1             
765                30                 1             
770                30                 1             
775                30                 1             
780                30                 1             
785                30                 1             
790                30                 1             
795                30                 1             
800                30                 1             
805                30                 1             
810                30                 1             
815                30                 1             
820                30                 1             
825                30                 1             
830                30                 1             
835                30                 1             
840                30                 1             
845                30                 1             
850                30                 1             
855                30                 1             
860                30                 1             
865                30                 1             
870                30                 1             
875                30                 1             
880                30                 1             
885                30                 1             
890                30                 1             
895                30                 1             
900                30                 1             
905                30                 1             
910                30                 1             
915                30                 1             
920                30                 1             
925                30                 1             
930                30                 1             
935                30                 1             
940                30                 1             
945                30                 1             
950                30                 1             
955                30                 1             
960                30                 1             
965                30                 1             
970                30                 1             
975                30                 1             
980                30                 1             
985                30                 1             
990                30                 1             
995                30                 1             
1000               30                 1             
0                  35                 1             
5                  35                 1             
10                 35                 1             
15                 35                 1             
20                 35                 1             
25                 35                 1             
30                 35                 1             
35                 35                 1             
40                 35                 1             
45                 35                 1             
50                 35                 1             
55                 35                 1             
60                 35                 1             
65                 35                 1             
70                 35                 1             
75                 35                 1             
80                 35                 1             
85                 35                 1             
90                 35                 1             
95                 35                 1             
100                35                 1             
105                35                 1             
110                35                 1             
115                35                 1             
120                35                 1             
125                35                 1             
130                35                 1             
135                35                 1             
140                35                 1             
145                35                 1             
150                35                 1             
155                35                 1             
160                35                 1             
165                35                 1             
170                35                 1             
175                35                 1             
180                35                 1             
185                35                 1             
190                35                 1             
195                35                 1             
200                35                 1             
205                35                 1             
210                35                 1             
215                35                 1             
220                35                 1             
225                35                 1             
230                35                 1             
235                35                 1             
240                35                 1             
245                35                 1             
250                35                 1             
255                35                 1             
260                35                 1             
265                35                 1             
270                35                 1             
275                35                 1             
280                35                 1             
285                35                 1             
290                35                 1             
295                35                 1             
300                35                 1             
305                35                 1             
310                35                 1             
315                35                 1             
320                35                 1             
325                35                 1             
330                35                 1             
335                35                 1             
340                35                 1             
345                35                 1             
350                35                 1             
355                35                 1             
360                35                 1             
365                35                 1             
370                35                 1             
375                35                 1             
380                35                 1             
385                35                 1             
390                35                 1             
395                35                 1             
400                35                 1             
405                35                 1             
410                35                 1             
415                35                 1             
420                35                 1             
425                35                 1             
430                35                 1             
435                35                 1             
440                35                 1             
445                35                 1             
450                35                 1             
455                35                 1             
460                35                 1             
465                35                 1             
470                35                 1             
475                35                 1             
480                35                 1             
485                35                 1             
490                35                 1             
495                35                 1.5           
500                35                 1.5           
505                35                 1             
510                35                 1             
515                35                 1             
520                35                 1             
525                35                 1             
530                35                 1             
535                35                 1             
540                35                 1             
545                35                 1             
550                35                 1             
555                35                 1             
560                35                 1             
565                35                 1             
570                35                 1             
575                35                 1             
580                35                 1             
585                35                 1             
590                35                 1             
595                35                 1             
600                35                 1             
605                35                 1             
610                35                 1             
615                35                 1             
620                35                 1             
625                35                 1             
630                35                 1             
635                35                 1             
640                35                 1             
645                35                 1             
650                35                 1             
655                35                 1             
660                35                 1             
665                35                 1             
670                35                 1             
675                35                 1             
680                35                 1             
685                35                 1             
690                35                 1             
695                35                 1             
700                35                 1             
705                35                 1             
710                35                 1             
715                35                 1             
720                35                 1             
725                35                 1             
730                35                 1             
735                35                 1             
740                35                 1             
745                35                 1             
750                35                 1             
755                35                 1             
760                35                 1             
765                35                 1             
770                35                 1             
775                35                 1             
780                35                 1             
785                35                 1             
790                35                 1             
795                35                 1             
800                35                 1             
805                35                 1             
810                35                 1             
815                35                 1             
820                35                 1             
825                35                 1             
830                35                 1             
835                35                 1             
840                35                 1             
845                35                 1             
850                35                 1             
855                35                 1             
860                35                 1             
865                35                 1             
870                35                 1             
875                35                 1             
880                35                 1             
885                35                 1             
890                35                 1             
895                35                 1             
900                35                 1             
905                35                 1             
910                35                 1             
915                35                 1             
920                35                 1             
925                35                 1             
930                35                 1             
935                35                 1             
940                35                 1             
945                35                 1             
950                35                 1             
955                35                 1             
960                35                 1             
965                35                 1             
970                35                 1             
975                35                 1             
980                35                 1             
985                35                 1             
990                35                 1             
995                35                 1             
1000               35                 1             
0                  40                 1             
5                  40                 1             
10                 40                 1             
15                 40                 1             
20                 40                 1             
25                 40                 1             
30                 40                 1             
35                 40                 1             
40                 40                 1             
45                 40                 1             
50                 40                 1             
55                 40                 1             
60                 40                 1             
65                 40                 1             
70                 40                 1             
75                 40                 1             
80                 40                 1             
85                 40                 1             
90                 40                 1             
95                 40                 1             
100                40                 1             
105                40                 1             
110                40                 1             
115                40                 1             
120                40                 1             
125                40                 1             
130                40                 1             
135                40                 1             
140                40                 1             
145                40                 1             
150                40                 1             
155                40                 1             
160                40                 1             
165                40                 1             
170                40                 1             
175                40                 1             
180                40                 1             
185                40                 1             
190                40                 1             
195                40                 1             
200                40                 1             
205                40                 1             
210                40                 1             
215                40                 1             
220                40                 1             
225                40                 1             
230                40                 1             
235                40                 1             
240                40                 1             
245                40                 1             
250                40                 1             
255                40                 1             
260                40                 1             
265                40                 1             
270                40                 1             
275                40                 1             
280                40                 1             
285                40                 1             
290                40                 1             
295                40                 1             
300                40                 1             
305                40                 1             
310                40                 1             
315                40                 1             
320                40                 1             
325                40                 1             
330                40                 1             
335                40                 1             
340                40                 1             
345                40                 1             
350                40                 1             
355                40                 1             
360                40                 1             
365                40                 1             
370                40                 1             
375                40                 1             
380                40                 1             
385                40                 1             
390                40                 1             
395                40                 1             
400                40                 1             
405                40                 1             
410                40                 1             
415                40                 1             
420                40                 1             
425                40                 1             
430                40                 1             
435                40                 1             
440                40                 1             
445                40                 1             
450                40                 1             
455                40                 1             
460                40                 1             
465                40                 1             
470                40                 1             
475                40                 1             
480                40                 1             
485                40                 1             
490                40                 1             
495                40                 1.5           
500                40                 1.5           
505                40                 1             
510                40                 1             
515                40                 1             
520                40                 1             
525                40                 1             
530                40                 1             
535                40                 1             
540                40                 1             
545                40                 1             
550                40                 1             
555                40                 1             
560                40                 1             
565                40                 1             
570                40                 1             
575                40                 1             
580                40                 1             
585                40                 1             
590                40                 1             
595                40                 1             
600                40                 1             
605                40                 1             
610                40                 1             
615                40                 1             
620                40                 1             
625                40                 1             
630                40                 1             
635                40                 1             
640                40                 1             
645                40                 1             
650                40                 1             
655                40                 1             
660                40                 1             
665                40                 1             
670                40                 1             
675                40                 1             
680                40                 1             
685                40                 1             
690                40                 1             
695                40                 1             
700                40                 1             
705                40                 1             
710                40                 1             
715                40                 1             
720                40                 1             
725                40                 1             
730                40                 1             
735                40                 1             
740                40                 1             
745                40                 1             
750                40                 1             
755                40                 1             
760                40                 1             
765                40                 1             
770                40                 1             
775                40                 1             
780                40                 1             
785                40                 1             
790                40                 1             
795                40                 1             
800                40                 1             
805                40                 1             
810                40                 1             
815                40                 1             
820                40                 1             
825                40                 1             
830                40                 1             
835                40                 1             
840                40                 1             
845                40                 1             
850                40                 1             
855                40                 1             
860                40                 1             
865                40                 1             
870                40                 1             
875                40                 1             
880                40                 1             
885                40                 1             
890                40                 1             
895                40                 1             
900                40                 1             
905                40                 1             
910                40                 1             
915                40                 1             
920                40                 1             
925                40                 1             
930                40                 1             
935                40                 1             
940                40                 1             
945                40                 1             
950                40                 1             
955                40                 1             
960                40                 1             
965                40                 1             
970                40                 1             
975                40                 1             
980                40                 1             
985                40                 1             
990                40                 1             
995                40                 1             
1000               40                 1             
0                  45                 1             
5                  45                 1             
10                 45                 1             
15                 45                 1             
20                 45                 1             
25                 45                 1             
30                 45                 1             
35                 45                 1             
40                 45                 1             
45                 45                 1             
50                 45                 1             
55                 45                 1             
60                 45                 1             
65                 45                 1             
70                 45                 1             
75                 45                 1             
80                 45                 1             
85                 45                 1             
90                 45                 1             
95                 45                 1             
100                45                 1             
105                45                 1             
110                45                 1             
115                45                 1             
120                45                 1             
125                45                 1             
130                45                 1             
135                45                 1             
140                45                 1             
145                45                 1             
150                45                 1             
155                45                 1             
160                45                 1             
165                45                 1             
170                45                 1             
175                45                 1             
180                45                 1             
185                45                 1             
190                45                 1             
195                45                 1             
200                45                 1             
205                45                 1             
210                45                 1             
215                45                 1             
220                45                 1             
225                45                 1             
230                45                 1             
235                45                 1             
240                45                 1             
245                45                 1             
250                45                 1             
255                45                 1             
260                45                 1             
265                45                 1             
270                45                 1             
275                45                 1             
280                45                 1             
285                45                 1             
290                45                 1             
295                45                 1             
300                45                 1             
305                45                 1             
310                45                 1             
315                45                 1             
320                45                 1             
325                45                 1             
330                45                 1             
335                45                 1             
340                45                 1             
345                45                 1             
350                45                 1             
355                45                 1             
360                45                 1             
365                45                 1             
370                45                 1             
375                45                 1             
380                45                 1             
385                45                 1             
390                45                 1             
395                45                 1             
400                45                 1             
405                45                 1             
410                45                 1             
415                45                 1             
420                45                 1             
425                45                 1             
430                45                 1             
435                45                 1             
440                45                 1             
445                45                 1             
450                45                 1             
455                45                 1             
460                45                 1             
465                45                 1             
470                45                 1             
475                45                 1             
480                45                 1             
485                45                 1             
490                45                 1             
495                45                 1.5           
500                45                 1.5           
505                45                 1             
510                45                 1             
515                45                 1             
520                45                 1             
525                45                 1             
530                45                 1             
535                45                 1             
540                45                 1             
545                45                 1             
550                45                 1             
555                45                 1             
560                45                 1             
565                45                 1             
570                45                 1             
575                45                 1             
580                45                 1             
585                45                 1             
590                45                 1             
595                45                 1             
600                45                 1             
605                45                 1             
610                45                 1             
615                45                 1             
620                45                 1             
625                45                 1             
630                45                 1             
635                45                 1             
640                45                 1             
645                45                 1             
650                45                 1             
655                45                 1             
660                45                 1             
665                45                 1             
670                45                 1             
675                45                 1             
680                45                 1             
685                45                 1             
690                45                 1             
695                45                 1             
700                45                 1             
705                45                 1             
710                45                 1             
715                45                 1             
720                45                 1             
725                45                 1             
730                45                 1             
735                45                 1             
740                45                 1             
745                45                 1             
750                45                 1             
755                45                 1             
760                45                 1             
765                45                 1             
770                45                 1             
775                45                 1             
780                45                 1             
785                45                 1             
790                45                 1             
795                45                 1             
800                45                 1             
805                45                 1             
810                45                 1             
815                45                 1             
820                45                 1             
825                45                 1             
830                45                 1             
835                45                 1             
840                45                 1             
845                45                 1             
850                45                 1             
855                45                 1             
860                45                 1             
865                45                 1             
870                45                 1             
875                45                 1             
880                45                 1             
885                45                 1             
890                45                 1             
895                45                 1             
900                45                 1             
905                45                 1             
910                45                 1             
915                45                 1             
920                45                 1             
925                45                 1             
930                45                 1             
935                45                 1             
940                45                 1             
945                45                 1             
950                45                 1             
955                45                 1             
960                45                 1             
965                45                 1             
970                45                 1             
975                45                 1             
980                45                 1             
985                45                 1             
990                45                 1             
995                45                 1             
1000               45                 1             
0                  50                 1             
5                  50                 1             
10                 50                 1             
15                 50                 1             
20                 50                 1             
25                 50                 1             
30                 50                 1             
35                 50                 1             
40                 50                 1             
45                 50                 1             
50                 50                 1             
55                 50                 1             
60                 50                 1             
65                 50                 1             
70                 50                 1             
75                 50                 1             
80                 50                 1             
85                 50                 1             
90                 50                 1             
95                 50                 1             
100                50                 1             
105                50                 1             
110                50                 1             
115                50                 1             
120                50                 1             
125                50                 1             
130                50                 1             
135                50                 1             
140                50                 1             
145                50                 1             
150                50                 1             
155                50                 1             
160                50                 1             
165                50                 1             
170                50                 1             
175                50                 1             
180                50                 1             
185                50                 1             
190                50                 1             
195                50                 1             
200                50                 1             
205                50                 1             
210                50                 1             
215                50                 1             
220                50                 1             
225                50                 1             
230                50                 1             
235                50                 1             
240                50                 1             
245                50                 1             
250                50                 1             
255                50                 1             
260                50                 1             
265                50                 1             
270                50                 1             
275                50                 1             
280                50                 1             
285                50                 1             
290                50                 1             
295                50                 1             
300                50                 1             
305                50                 1             
310                50                 1             
315                50                 1             
320                50                 1             
325                50                 1             
330                50                 1             
335                50                 1             
340                50                 1             
345                50                 1             
350                50                 1             
355                50                 1             
360                50                 1             
365                50                 1             
370                50                 1             
375                50                 1             
380                50                 1             
385                50                 1             
390                50                 1             
395                50                 1             
400                50                 1             
405                50                 1             
410                50                 1             
415                50                 1             
420                50                 1             
425                50                 1             
430                50                 1             
435                50                 1             
440                50                 1             
445                50                 1             
450                50                 1             
455                50                 1             
460                50                 1             
465                50                 1             
470                50                 1             
475                50                 1             
480                50                 1             
485                50                 1             
490                50                 1             
495                50                 1.5           
500                50                 1.5           
505                50                 1             
510                50                 1             
515                50                 1             
520                50                 1             
525                50                 1             
530                50                 1             
535                50                 1             
540                50                 1             
545                50                 1             
550                50                 1             
555                50                 1             
560                50                 1             
565                50                 1             
570                50                 1             
575                50                 1             
580                50                 1             
585                50                 1             
590                50                 1             
595                50                 1             
600                50                 1             
605                50                 1             
610                50                 1             
615                50                 1             
620                50                 1             
625                50                 1             
630                50                 1             
635                50                 1             
640                50                 1             
645                50                 1             
650                50                 1             
655                50                 1             
660                50                 1             
665                50                 1             
670                50                 1             
675                50                 1             
680                50                 1             
685                50                 1             
690                50                 1             
695                50                 1             
700                50                 1             
705                50                 1             
710                50                 1             
715                50                 1             
720                50                 1             
725                50                 1             
730                50                 1             
735                50                 1             
740                50                 1             
745                50                 1             
750                50                 1             
755                50                 1             
760                50                 1             
765                50                 1             
770                50                 1             
775                50                 1             
780                50                 1             
785                50                 1             
790                50                 1             
795                50                 1             
800                50                 1             
805                50                 1             
810                50                 1             
815                50                 1             
820                50                 1             
825                50                 1             
830                50                 1             
835                50                 1             
840                50                 1             
845                50                 1             
850                50                 1             
855                50                 1             
860                50                 1             
865                50                 1             
870                50                 1             
875                50                 1             
880                50                 1             
885                50                 1             
890                50                 1             
895                50                 1             
900                50                 1             
905                50                 1             
910                50                 1             
915                50                 1             
920                50                 1             
925                50                 1             
930                50                 1             
935                50                 1             
940                50                 1             
945                50                 1             
950                50                 1             
955                50                 1             
960                50                 1             
965                50                 1             
970                50                 1             
975                50                 1             
980                50                 1             
985                50                 1             
990                50                 1             
995                50                 1             
1000               50                 1             
0                  55                 1             
5                  55                 1             
10                 55                 1             
15                 55                 1             
20                 55                 1             
25                 55                 1             
30                 55                 1             
35                 55                 1             
40                 55                 1             
45                 55                 1             
50                 55                 1             
55                 55                 1             
60                 55                 1             
65                 55                 1             
70                 55                 1             
75                 55                 1             
80                 55                 1             
85                 55                 1             
90                 55                 1             
95                 55                 1             
100                55                 1             
105                55                 1             
110                55                 1             
115                55                 1             
120                55                 1             
125                55                 1             
130                55                 1             
135                55                 1             
140                55                 1             
145                55                 1             
150                55                 1             
155                55                 1             
160                55                 1             
165                55                 1             
170                55                 1             
175                55                 1             
180                55                 1             
185                55                 1             
190                55                 1             
195                55                 1             
200                55                 1             
205                55                 1             
210                55                 1             
215                55                 1             
220                55                 1             
225                55                 1             
230                55                 1             
235                55                 1             
240                55                 1             
245                55                 1             
250                55                 1             
255                55                 1             
260                55                 1             
265                55                 1             
270                55                 1             
275                55                 1             
280                55                 1             
285                55                 1             
290                55                 1             
295                55                 1             
300                55                 1             
305                55                 1             
310                55                 1             
315                55                 1             
320                55                 1             
325                55                 1             
330                55                 1             
335                55                 1             
340                55                 1             
345                55                 1             
350                55                 1             
355                55                 1             
360                55                 1             
365                55                 1             
370                55                 1             
375                55                 1             
380                55                 1             
385                55                 1             
390                55                 1             
395                55                 1             
400                55                 1             
405                55                 1             
410                55                 1             
415                55                 1             
420                55                 1             
425                55                 1             
430                55                 1             
435                55                 1             
440                55                 1             
445                55                 1             
450                55                 1             
455                55                 1             
460                55                 1             
465                55                 1             
470                55                 1             
475                55                 1             
480                55                 1             
485                55                 1             
490                55                 1             
495                55                 1.5           
500                55                 1.5           
505                55                 1             
510                55                 1             
515                55                 1             
520                55                 1             
525                55                 1             
530                55                 1             
535                55                 1             
540                55                 1             
545                55                 1             
550                55                 1             
555                55                 1             
560                55                 1             
565                55                 1             
570                55                 1             
575                55                 1             
580                55                 1             
585                55                 1             
590                55                 1             
595                55                 1             
600                55                 1             
605                55                 1             
610                55                 1             
615                55                 1             
620                55                 1             
625                55                 1             
630                55                 1             
635                55                 1             
640                55                 1             
645                55                 1             
650                55                 1             
655                55                 1             
660                55                 1             
665                55                 1             
670                55                 1             
675                55                 1             
680                55                 1             
685                55                 1             
690                55                 1             
695                55                 1             
700                55                 1             
705                55                 1             
710                55                 1             
715                55                 1             
720                55                 1             
725                55                 1             
730                55                 1             
735                55                 1             
740                55                 1             
745                55                 1             
750                55                 1             
755                55                 1             
760                55                 1             
765                55                 1             
770                55                 1             
775                55                 1             
780                55                 1             
785                55                 1             
790                55                 1             
795                55                 1             
800                55                 1             
805                55                 1             
810                55                 1             
815                55                 1             
820                55                 1             
825                55                 1             
830                55                 1             
835                55                 1             
840                55                 1             
845                55                 1             
850                55                 1             
855                55                 1             
860                55                 1             
865                55                 1             
870                55                 1             
875                55                 1             
880                55                 1             
885                55                 1             
890                55                 1             
895                55                 1             
900                55                 1             
905                55                 1             
910                55                 1             
915                55                 1             
920                55                 1             
925                55                 1             
930                55                 1             
935                55                 1             
940                55                 1             
945                55                 1             
950                55                 1             
955                55                 1             
960                55                 1             
965                55                 1             
970                55                 1             
975                55                 1             
980                55                 1             
985                55                 1             
990                55                 1             
995                55                 1             
1000               55                 1             
0                  60                 1             
5                  60                 1             
10                 60                 1             
15                 60                 1             
20                 60                 1             
25                 60                 1             
30                 60                 1             
35                 60                 1             
40                 60                 1             
45                 60                 1             
50                 60                 1             
55                 60                 1             
60                 60                 1             
65                 60                 1             
70                 60                 1             
75                 60                 1             
80                 60                 1             
85                 60                 1             
90                 60                 1             
95                 60                 1             
100                60                 1             
105                60                 1             
110                60                 1             
115                60                 1             
120                60                 1             
125                60                 1             
130                60                 1             
135                60                 1             
140                60                 1             
145                60                 1             
150                60                 1             
155                60                 1             
160                60                 1             
165                60                 1             
170                60                 1             
175                60                 1             
180                60                 1             
185                60                 1             
190                60                 1             
195                60                 1             
200                60                 1             
205                60                 1             
210                60                 1             
215                60                 1             
220                60                 1             
225                60                 1             
230                60                 1             
235                60                 1             
240                60                 1             
245                60                 1             
250                60                 1             
255                60                 1             
260                60                 1             
265                60                 1             
270                60                 1             
275                60                 1             
280                60                 1             
285                60                 1             
290                60                 1             
295                60                 1             
300                60                 1             
305                60                 1             
310                60                 1             
315                60                 1             
320                60                 1             
325                60                 1             
330                60                 1             
335                60                 1             
340                60                 1             
345                60                 1             
350                60                 1             
355                60                 1             
360                60                 1             
365                60                 1             
370                60                 1             
375                60                 1             
380                60                 1             
385                60                 1             
390                60                 1             
395                60                 1             
400                60                 1             
405                60                 1             
410                60                 1             
415                60                 1             
420                60                 1             
425                60                 1             
430                60                 1             
435                60                 1             
440                60                 1             
445                60                 1             
450                60                 1             
455                60                 1             
460                60                 1             
465                60                 1             
470                60                 1             
475                60                 1             
480                60                 1             
485                60                 1             
490                60                 1             
495                60                 1.5           
500                60                 1.5           
505                60                 1             
510                60                 1             
515                60                 1             
520                60                 1             
525                60                 1             
530                60                 1             
535                60                 1             
540                60                 1             
545                60                 1             
550                60                 1             
555                60                 1             
560                60                 1             
565                60                 1             
570                60                 1             
575                60                 1             
580                60                 1             
585                60                 1             
590                60                 1             
595                60                 1             
600                60                 1             
605                60                 1             
610                60                 1             
615                60                 1             
620                60                 1             
625                60                 1             
630                60                 1             
635                60                 1             
640                60                 1             
645                60                 1             
650                60                 1             
655                60                 1             
660                60                 1             
665                60                 1             
670                60                 1             
675                60                 1             
680                60                 1             
685                60                 1             
690                60                 1             
695                60                 1             
700                60                 1             
705                60                 1             
710                60                 1             
715                60                 1             
720                60                 1             
725                60                 1             
730                60                 1             
735                60                 1             
740                60                 1             
745                60                 1             
750                60                 1             
755                60                 1             
760                60                 1             
765                60                 1             
770                60                 1             
775                60                 1             
780                60                 1             
785                60                 1             
790                60                 1             
795                60                 1             
800                60                 1             
805                60                 1             
810                60                 1             
815                60                 1             
820                60                 1             
825                60                 1             
830                60                 1             
835                60                 1             
840                60                 1             
845                60                 1             
850                60                 1             
855                60                 1             
860                60                 1             
865                60                 1             
870                60                 1             
875                60                 1             
880                60                 1             
885                60                 1             
890                60                 1             
895                60                 1             
900                60                 1             
905                60                 1             
910                60                 1             
915                60                 1             
920                60                 1             
925                60                 1             
930                60                 1             
935                60                 1             
940                60                 1             
945                60                 1             
950                60                 1             
955                60                 1             
960                60                 1             
965                60                 1             
970                60                 1             
975                60                 1             
980                60                 1             
985                60                 1             
990                60                 1             
995                60                 1             
1000               60                 1             
0                  65                 1             
5                  65                 1             
10                 65                 1             
15                 65                 1             
20                 65                 1             
25                 65                 1             
30                 65                 1             
35                 65                 1             
40                 65                 1             
45                 65                 1             
50                 65                 1             
55                 65                 1             
60                 65                 1             
65                 65                 1             
70                 65                 1             
75                 65                 1             
80                 65                 1             
85                 65                 1             
90                 65                 1             
95                 65                 1             
100                65                 1             
105                65                 1             
110                65                 1             
115                65                 1             
120                65                 1             
125                65                 1             
130                65                 1             
135                65                 1             
140                65                 1             
145                65                 1             
150                65                 1             
155                65                 1             
160                65                 1             
165                65                 1             
170                65                 1             
175                65                 1             
180                65                 1             
185                65                 1             
190                65                 1             
195                65                 1             
200                65                 1             
205                65                 1             
210                65                 1             
215                65                 1             
220                65                 1             
225                65                 1             
230                65                 1             
235                65                 1             
240                65                 1             
245                65                 1             
250                65                 1             
255                65                 1             
260                65                 1             
265                65                 1             
270                65                 1             
275                65                 1             
280                65                 1             
285                65                 1             
290                65                 1             
295                65                 1             
300                65                 1             
305                65                 1             
310                65                 1             
315                65                 1             
320                65                 1             
325                65                 1             
330                65                 1             
335                65                 1             
340                65                 1             
345                65                 1             
350                65                 1             
355                65                 1             
360                65                 1             
365                65                 1             
370                65                 1             
375                65                 1             
380                65                 1             
385                65                 1             
390                65                 1             
395                65                 1             
400                65                 1             
405                65                 1             
410                65                 1             
415                65                 1             
420                65                 1             
425                65                 1             
430                65                 1             
435                65                 1             
440                65                 1             
445                65                 1             
450                65                 1             
455                65                 1             
460                65                 1             
465                65                 1             
470                65                 1             
475                65                 1             
480                65                 1             
485                65                 1             
490                65                 1             
495                65                 1.5           
500                65                 1.5           
505                65                 1             
510                65                 1             
515                65                 1             
520                65                 1             
525                65                 1             
530                65                 1             
535                65                 1             
540                65                 1             
545                65                 1             
550                65                 1             
555                65                 1             
560                65                 1             
565                65                 1             
570                65                 1             
575                65                 1             
580                65                 1             
585                65                 1             
590                65                 1             
595                65                 1             
600                65                 1             
605                65                 1             
610                65                 1             
615                65                 1             
620                65                 1             
625                65                 1             
630                65                 1             
635                65                 1             
640                65                 1             
645                65                 1             
650                65                 1             
655                65                 1             
660                65                 1             
665                65                 1             
670                65                 1             
675                65                 1             
680                65                 1             
685                65                 1             
690                65                 1             
695                65                 1             
700                65                 1             
705                65                 1             
710                65                 1             
715                65                 1             
720                65                 1             
725                65                 1             
730                65                 1             
735                65                 1             
740                65                 1             
745                65                 1             
750                65                 1             
755                65                 1             
760                65                 1             
765                65                 1             
770                65                 1             
775                65                 1             
780                65                 1             
785                65                 1             
790                65                 1             
795                65                 1             
800                65                 1             
805                65                 1             
810                65                 1             
815                65                 1             
820                65                 1             
825                65                 1             
830                65                 1             
835                65                 1             
840                65                 1             
845                65                 1             
850                65                 1             
855                65                 1             
860                65                 1             
865                65                 1             
870                65                 1             
875                65                 1             
880                65                 1             
885                65                 1             
890                65                 1             
895                65                 1             
900                65                 1             
905                65                 1             
910                65                 1             
915                65                 1             
920                65                 1             
925                65                 1             
930                65                 1             
935                65                 1             
940                65                 1             
945                65                 1             
950                65                 1             
955                65                 1             
960                65                 1             
965                65                 1             
970                65                 1             
975                65                 1             
980                65                 1             
985                65                 1             
990                65                 1             
995                65                 1             
1000               65                 1             
0                  70                 1             
5                  70                 1             
10                 70                 1             
15                 70                 1             
20                 70                 1             
25                 70                 1             
30                 70                 1             
35                 70                 1             
40                 70                 1             
45                 70                 1             
50                 70                 1             
55                 70                 1             
60                 70                 1             
65                 70                 1             
70                 70                 1             
75                 70                 1             
80                 70                 1             
85                 70                 1             
90                 70                 1             
95                 70                 1             
100                70                 1             
105                70                 1             
110                70                 1             
115                70                 1             
120                70                 1             
125                70                 1             
130                70                 1             
135                70                 1             
140                70                 1             
145                70                 1             
150                70                 1             
155                70                 1             
160                70                 1             
165                70                 1             
170                70                 1             
175                70                 1             
180                70                 1             
185                70                 1             
190                70                 1             
195                70                 1             
200                70                 1             
205                70                 1             
210                70                 1             
215                70                 1             
220                70                 1             
225                70                 1             
230                70                 1             
235                70                 1             
240                70                 1             
245                70                 1             
250                70                 1             
255                70                 1             
260                70                 1             
265                70                 1             
270                70                 1             
275                70                 1             
280                70                 1             
285                70                 1             
290                70                 1             
295                70                 1             
300                70                 1             
305                70                 1             
310                70                 1             
315                70                 1             
320                70                 1             
325                70                 1             
330                70                 1             
335                70                 1             
340                70                 1             
345                70                 1             
350                70                 1             
355                70                 1             
360                70                 1             
365                70                 1             
370                70                 1             
375                70                 1             
380                70                 1             
385                70                 1             
390                70                 1             
395                70                 1             
400                70                 1             
405                70                 1             
410                70                 1             
415                70                 1             
420                70                 1             
425                70                 1             
430                70                 1             
435                70                 1             
440                70                 1             
445                70                 1             
450                70                 1             
455                70                 1             
460                70                 1             
465                70                 1             
470                70                 1             
475                70                 1             
480                70                 1             
485                70                 1             
490                70                 1             
495                70                 1.5           
500                70                 1.5           
505                70                 1             
510                70                 1             
515                70                 1             
520                70                 1             
525                70                 1             
530                70                 1             
535                70                 1             
540                70                 1             
545                70                 1             
550                70                 1             
555                70                 1             
560                70                 1             
565                70                 1             
570                70                 1             
575                70                 1             
580                70                 1             
585                70                 1             
590                70                 1             
595                70                 1             
600                70                 1             
605                70                 1             
610                70                 1             
615                70                 1             
620                70                 1             
625                70                 1             
630                70                 1             
635                70                 1             
640                70                 1             
645                70                 1             
650                70                 1             
655                70                 1             
660                70                 1             
665                70                 1             
670                70                 1             
675                70                 1             
680                70                 1             
685                70                 1             
690                70                 1             
695                70                 1             
700                70                 1             
705                70                 1             
710                70                 1             
715                70                 1             
720                70                 1             
725                70                 1             
730                70                 1             
735                70                 1             
740                70                 1             
745                70                 1             
750                70                 1             
755                70                 1             
760                70                 1             
765                70                 1             
770                70                 1             
775                70                 1             
780                70                 1             
785                70                 1             
790                70                 1             
795                70                 1             
800                70                 1             
805                70                 1             
810                70                 1             
815                70                 1             
820                70                 1             
825                70                 1             
830                70                 1             
835                70                 1             
840                70                 1             
845                70                 1             
850                70                 1             
855                70                 1             
860                70                 1             
865                70                 1             
870                70                 1             
875                70                 1             
880                70                 1             
885                70                 1             
890                70                 1             
895                70                 1             
900                70                 1             
905                70                 1             
910                70                 1             
915                70                 1             
920                70                 1             
925                70                 1             
930                70                 1             
935                70                 1             
940                70                 1             
945                70                 1             
950                70                 1             
955                70                 1             
960                70                 1             
965                70                 1             
970                70                 1             
975                70                 1             
980                70                 1             
985                70                 1             
990                70                 1             
995                70                 1             
1000               70                 1             
0                  75                 1             
5                  75                 1             
10                 75                 1             
15                 75                 1             
20                 75                 1             
25                 75                 1             
30                 75                 1             
35                 75                 1             
40                 75                 1             
45                 75                 1             
50                 75                 1             
55                 75                 1             
60                 75                 1             
65                 75                 1             
70                 75                 1             
75                 75                 1             
80                 75                 1             
85                 75                 1             
90                 75                 1             
95                 75                 1             
100                75                 1             
105                75                 1             
110                75                 1             
115                75                 1             
120                75                 1             
125                75                 1             
130                75                 1             
135                75                 1             
140                75                 1             
145                75                 1             
150                75                 1             
155                75                 1             
160                75                 1             
165                75                 1             
170                75                 1             
175                75                 1             
180                75                 1             
185                75                 1             
190                75                 1             
195                75                 1             
200                75                 1             
205                75                 1             
210                75                 1             
215                75                 1             
220                75                 1             
225                75                 1             
230                75                 1             
235                75                 1             
240                75                 1             
245                75                 1             
250                75                 1             
255                75                 1             
260                75                 1             
265                75                 1             
270                75                 1             
275                75                 1             
280                75                 1             
285                75                 1             
290                75                 1             
295                75                 1             
300                75                 1             
305                75                 1             
310                75                 1             
315                75                 1             
320                75                 1             
325                75                 1             
330                75                 1             
335                75                 1             
340                75                 1             
345                75                 1             
350                75                 1             
355                75                 1             
360                75                 1             
365                75                 1             
370                75                 1             
375                75                 1             
380                75                 1             
385                75                 1             
390                75                 1             
395                75                 1             
400                75                 1             
405                75                 1             
410                75                 1             
415                75                 1             
420                75                 1             
425                75                 1             
430                75                 1             
435                75                 1             
440                75                 1             
445                75                 1             
450                75                 1             
455                75                 1             
460                75                 1             
465                75                 1             
470                75                 1             
475                75                 1             
480                75                 1             
485                75                 1             
490                75                 1             
495                75                 1.5           
500                75                 1.5           
505                75                 1             
510                75                 1             
515                75                 1             
520                75                 1             
525                75                 1             
530                75                 1             
535                75                 1             
540                75                 1             
545                75                 1             
550                75                 1             
555                75                 1             
560                75                 1             
565                75                 1             
570                75                 1             
575                75                 1             
580                75                 1             
585                75                 1             
590                75                 1             
595                75                 1             
600                75                 1             
605                75                 1             
610                75                 1             
615                75                 1             
620                75                 1             
625                75                 1             
630                75                 1             
635                75                 1             
640                75                 1             
645                75                 1             
650                75                 1             
655                75                 1             
660                75                 1             
665                75                 1             
670                75                 1             
675                75                 1             
680                75                 1             
685                75                 1             
690                75                 1             
695                75                 1             
700                75                 1             
705                75                 1             
710                75                 1             
715                75                 1             
720                75                 1             
725                75                 1             
730                75                 1             
735                75                 1             
740                75                 1             
745                75                 1             
750                75                 1             
755                75                 1             
760                75                 1             
765                75                 1             
770                75                 1             
775                75                 1             
780                75                 1             
785                75                 1             
790                75                 1             
795                75                 1             
800                75                 1             
805                75                 1             
810                75                 1             
815                75                 1             
820                75                 1             
825                75                 1             
830                75                 1             
835                75                 1             
840                75                 1             
845                75                 1             
850                75                 1             
855                75                 1             
860                75                 1             
865                75                 1             
870                75                 1             
875                75                 1             
880                75                 1             
885                75                 1             
890                75                 1             
895                75                 1             
900                75                 1             
905                75                 1             
910                75                 1             
915                75                 1             
920                75                 1             
925                75                 1             
930                75                 1             
935                75                 1             
940                75                 1             
945                75                 1             
950                75                 1             
955                75                 1             
960                75                 1             
965                75                 1             
970                75                 1             
975                75                 1             
980                75                 1             
985                75                 1             
990                75                 1             
995                75                 1             
1000               75                 1             
0                  80                 1             
5                  80                 1             
10                 80                 1             
15                 80                 1             
20                 80                 1             
25                 80                 1             
30                 80                 1             
35                 80                 1             
40                 80                 1             
45                 80                 1             
50                 80                 1             
55                 80                 1             
60                 80                 1             
65                 80                 1             
70                 80                 1             
75                 80                 1             
80                 80                 1             
85                 80                 1             
90                 80                 1             
95                 80                 1             
100                80                 1             
105                80                 1             
110                80                 1             
115                80                 1             
120                80                 1             
125                80                 1             
130                80                 1             
135                80                 1             
140                80                 1             
145                80                 1             
150                80                 1             
155                80                 1             
160                80                 1             
165                80                 1             
170                80                 1             
175                80                 1             
180                80                 1             
185                80                 1             
190                80                 1             
195                80                 1             
200                80                 1             
205                80                 1             
210                80                 1             
215                80                 1             
220                80                 1             
225                80                 1             
230                80                 1             
235                80                 1             
240                80                 1             
245                80                 1             
250                80                 1             
255                80                 1             
260                80                 1             
265                80                 1             
270                80                 1             
275                80                 1             
280                80                 1             
285                80                 1             
290                80                 1             
295                80                 1             
300                80                 1             
305                80                 1             
310                80                 1             
315                80                 1             
320                80                 1             
325                80                 1             
330                80                 1             
335                80                 1             
340                80                 1             
345                80                 1             
350                80                 1             
355                80                 1             
360                80                 1             
365                80                 1             
370                80                 1             
375                80                 1             
380                80                 1             
385                80                 1             
390                80                 1             
395                80                 1             
400                80                 1             
405                80                 1             
410                80                 1             
415                80                 1             
420                80                 1             
425                80                 1             
430                80                 1             
435                80                 1             
440                80                 1             
445                80                 1             
450                80                 1             
455                80                 1             
460                80                 1             
465                80                 1             
470                80                 1             
475                80                 1             
480                80                 1             
485                80                 1             
490                80                 1             
495                80                 1.5           
500                80                 1.5           
505                80                 1             
510                80                 1             
515                80                 1             
520                80                 1             
525                80                 1             
530                80                 1             
535                80                 1             
540                80                 1             
545                80                 1             
550                80                 1             
555                80                 1             
560                80                 1             
565                80                 1             
570                80                 1             
575                80                 1             
580                80                 1             
585                80                 1             
590                80                 1             
595                80                 1             
600                80                 1             
605                80                 1             
610                80                 1             
615                80                 1             
620                80                 1             
625                80                 1             
630                80                 1             
635                80                 1             
640                80                 1             
645                80                 1             
650                80                 1             
655                80                 1             
660                80                 1             
665                80                 1             
670                80                 1             
675                80                 1             
680                80                 1             
685                80                 1             
690                80                 1             
695                80                 1             
700                80                 1             
705                80                 1             
710                80                 1             
715                80                 1             
720                80                 1             
725                80                 1             
730                80                 1             
735                80                 1             
740                80                 1             
745                80                 1             
750                80                 1             
755                80                 1             
760                80                 1             
765                80                 1             
770                80                 1             
775                80                 1             
780                80                 1             
785                80                 1             
790                80                 1             
795                80                 1             
800                80                 1             
805                80                 1             
810                80                 1             
815                80                 1             
820                80                 1             
825                80                 1             
830                80                 1             
835                80                 1             
840                80                 1             
845                80                 1             
850                80                 1             
855                80                 1             
860                80                 1             
865                80                 1             
870                80                 1             
875                80                 1             
880                80                 1             
885                80                 1             
890                80                 1             
895                80                 1             
900                80                 1             
905                80                 1             
910                80                 1             
915                80                 1             
920                80                 1             
925                80                 1             
930                80                 1             
935                80                 1             
940                80                 1             
945                80                 1             
950                80                 1             
955                80                 1             
960                80                 1             
965                80                 1             
970                80                 1             
975                80                 1             
980                80                 1             
985                80                 1             
990                80                 1             
995                80                 1             
1000               80                 1             
0                  85                 1             
5                  85                 1             
10                 85                 1             
15                 85                 1             
20                 85                 1             
25                 85                 1             
30                 85                 1             
35                 85                 1             
40                 85                 1             
45                 85                 1             
50                 85                 1             
55                 85                 1             
60                 85                 1             
65                 85                 1             
70                 85                 1             
75                 85                 1             
80                 85                 1             
85                 85                 1             
90                 85                 1             
95                 85                 1             
100                85                 1             
105                85                 1             
110                85                 1             
115                85                 1             
120                85                 1             
125                85                 1             
130                85                 1             
135                85                 1             
140                85                 1             
145                85                 1             
150                85                 1             
155                85                 1             
160                85                 1             
165                85                 1             
170                85                 1             
175                85                 1             
180                85                 1             
185                85                 1             
190                85                 1             
195                85                 1             
200                85                 1             
205                85                 1             
210                85                 1             
215                85                 1             
220                85                 1             
225                85                 1             
230                85                 1             
235                85                 1             
240                85                 1             
245                85                 1             
250                85                 1             
255                85                 1             
260                85                 1             
265                85                 1             
270                85                 1             
275                85                 1             
280                85                 1             
285                85                 1             
290                85                 1             
295                85                 1             
300                85                 1             
305                85                 1             
310                85                 1             
315                85                 1             
320                85                 1             
325                85                 1             
330                85                 1             
335                85                 1             
340                85                 1             
345                85                 1             
350                85                 1             
355                85                 1             
360                85                 1             
365                85                 1             
370                85                 1             
375                85                 1             
380                85                 1             
385                85                 1             
390                85                 1             
395                85                 1             
400                85                 1             
405                85                 1             
410                85                 1             
415                85                 1             
420                85                 1             
425                85                 1             
430                85                 1             
435                85                 1             
440                85                 1             
445                85                 1             
450                85                 1             
455                85                 1             
460                85                 1             
465                85                 1             
470                85                 1             
475                85                 1             
480                85                 1             
485                85                 1             
490                85                 1             
495                85                 1.5           
500                85                 1.5           
505                85                 1             
510                85                 1             
515                85                 1             
520                85                 1             
525                85                 1             
530                85                 1             
535                85                 1             
540                85                 1             
545                85                 1             
550                85                 1             
555                85                 1             
560                85                 1             
565                85                 1             
570                85                 1             
575                85                 1             
580                85                 1             
585                85                 1             
590                85                 1             
595                85                 1             
600                85                 1             
605                85                 1             
610                85                 1             
615                85                 1             
620                85                 1             
625                85                 1             
630                85                 1             
635                85                 1             
640                85                 1             
645                85                 1             
650                85                 1             
655                85                 1             
660                85                 1             
665                85                 1             
670                85                 1             
675                85                 1             
680                85                 1             
685                85                 1             
690                85                 1             
695                85                 1             
700                85                 1             
705                85                 1             
710                85                 1             
715                85                 1             
720                85                 1             
725                85                 1             
730                85                 1             
735                85                 1             
740                85                 1             
745                85                 1             
750                85                 1             
755                85                 1             
760                85                 1             
765                85                 1             
770                85                 1             
775                85                 1             
780                85                 1             
785                85                 1             
790                85                 1             
795                85                 1             
800                85                 1             
805                85                 1             
810                85                 1             
815                85                 1             
820                85                 1             
825                85                 1             
830                85                 1             
835                85                 1             
840                85                 1             
845                85                 1             
850                85                 1             
855                85                 1             
860                85                 1             
865                85                 1             
870                85                 1             
875                85                 1             
880                85                 1             
885                85                 1             
890                85                 1             
895                85                 1             
900                85                 1             
905                85                 1             
910                85                 1             
915                85                 1             
920                85                 1             
925                85                 1             
930                85                 1             
935                85                 1             
940                85                 1             
945                85                 1             
950                85                 1             
955                85                 1             
960                85                 1             
965                85                 1             
970                85                 1             
975                85                 1             
980                85                 1             
985                85                 1             
990                85                 1             
995                85                 1             
1000               85                 1             
0                  90                 1             
5                  90                 1             
10                 90                 1             
15                 90                 1             
20                 90                 1             
25                 90                 1             
30                 90                 1             
35                 90                 1             
40                 90                 1             
45                 90                 1             
50                 90                 1             
55                 90                 1             
60                 90                 1             
65                 90                 1             
70                 90                 1             
75                 90                 1             
80                 90                 1             
85                 90                 1             
90                 90                 1             
95                 90                 1             
100                90                 1             
105                90                 1             
110                90                 1             
115                90                 1             
120                90                 1             
125                90                 1             
130                90                 1             
135                90                 1             
140                90                 1             
145                90                 1             
150                90                 1             
155                90                 1             
160                90                 1             
165                90                 1             
170                90                 1             
175                90                 1             
180                90                 1             
185                90                 1             
190                90                 1             
195                90                 1             
200                90                 1             
205                90                 1             
210                90                 1             
215                90                 1             
220                90                 1             
225                90                 1             
230                90                 1             
235                90                 1             
240                90                 1             
245                90                 1             
250                90                 1             
255                90                 1             
260                90                 1             
265                90                 1             
270                90                 1             
275                90                 1             
280                90                 1             
285                90                 1             
290                90                 1             
295                90                 1             
300                90                 1             
305                90                 1             
310                90                 1             
315                90                 1             
320                90                 1             
325                90                 1             
330                90                 1             
335                90                 1             
340                90                 1             
345                90                 1             
350                90                 1             
355                90                 1             
360                90                 1             
365                90                 1             
370                90                 1             
375                90                 1             
380                90                 1             
385                90                 1             
390                90                 1             
395                90                 1             
400                90                 1             
405                90                 1             
410                90                 1             
415                90                 1             
420                90                 1             
425                90                 1             
430                90                 1             
435                90                 1             
440                90                 1             
445                90                 1             
450                90                 1             
455                90                 1             
460                90                 1             
465                90                 1             
470                90                 1             
475                90                 1             
480                90                 1             
485                90                 1             
490                90                 1             
495                90                 1.5           
500                90                 1.5           
505                90                 1             
510                90                 1             
515                90                 1             
520                90                 1             
525                90                 1             
530                90                 1             
535                90                 1             
540                90                 1             
545                90                 1             
550                90                 1             
555                90                 1             
560                90                 1             
565                90                 1             
570                90                 1             
575                90                 1             
580                90                 1             
585                90                 1             
590                90                 1             
595                90                 1             
600                90                 1             
605                90                 1             
610                90                 1             
615                90                 1             
620                90                 1             
625                90                 1             
630                90                 1             
635                90                 1             
640                90                 1             
645                90                 1             
650                90                 1             
655                90                 1             
660                90                 1             
665                90                 1             
670                90                 1             
675                90                 1             
680                90                 1             
685                90                 1             
690                90                 1             
695                90                 1             
700                90                 1             
705                90                 1             
710                90                 1             
715                90                 1             
720                90                 1             
725                90                 1             
730                90                 1             
735                90                 1             
740                90                 1             
745                90                 1             
750                90                 1             
755                90                 1             
760                90                 1             
765                90                 1             
770                90                 1             
775                90                 1             
780                90                 1             
785                90                 1             
790                90                 1             
795                90                 1             
800                90                 1             
805                90                 1             
810                90                 1             
815                90                 1             
820                90                 1             
825                90                 1             
830                90                 1             
835                90                 1             
840                90                 1             
845                90                 1             
850                90                 1             
855                90                 1             
860                90                 1             
865                90                 1             
870                90                 1             
875                90                 1             
880                90                 1             
885                90                 1             
890                90                 1             
895                90                 1             
900                90                 1             
905                90                 1             
910                90                 1             
915                90                 1             
920                90                 1             
925                90                 1             
930                90                 1             
935                90                 1             
940                90                 1             
945                90                 1             
950                90                 1             
955                90                 1             
960                90                 1             
965                90                 1             
970                90                 1             
975                90                 1             
980                90                 1             
985                90                 1             
990                90                 1             
995                90                 1             
1000               90                 1             
0                  95                 1             
5                  95                 1             
10                 95                 1             
15                 95                 1             
20                 95                 1             
25                 95                 1             
30                 95                 1             
35                 95                 1             
40                 95                 1             
45                 95                 1             
50                 95                 1             
55                 95                 1             
60                 95                 1             
65                 95                 1             
70                 95                 1             
75                 95                 1             
80                 95                 1             
85                 95                 1             
90                 95                 1             
95                 95                 1             
100                95                 1             
105                95                 1             
110                95                 1             
115                95                 1             
120                95                 1             
125                95                 1             
130                95                 1             
135                95                 1             
140                95                 1             
145                95                 1             
150                95                 1             
155                95                 1             
160                95                 1             
165                95                 1             
170                95                 1             
175                95                 1             
180                95                 1             
185                95                 1             
190                95                 1             
195                95                 1             
200                95                 1             
205                95                 1             
210                95                 1             
215                95                 1             
220                95                 1             
225                95                 1             
230                95                 1             
235                95                 1             
240                95                 1             
245                95                 1             
250                95                 1             
255                95                 1             
260                95                 1             
265                95                 1             
270                95                 1             
275                95                 1             
280                95                 1             
285                95                 1             
290                95                 1             
295                95                 1             
300                95                 1             
305                95                 1             
310                95                 1             
315                95                 1             
320                95                 1             
325                95                 1             
330                95                 1             
335                95                 1             
340                95                 1             
345                95                 1             
350                95                 1             
355                95                 1             
360                95                 1             
365                95                 1             
370                95                 1             
375                95                 1             
380                95                 1             
385                95                 1             
390                95                 1             
395                95                 1             
400                95                 1             
405                95                 1             
410                95                 1             
415                95                 1             
420                95                 1             
425                95                 1             
430                95                 1             
435                95                 1             
440                95                 1             
445                95                 1             
450                95                 1             
455                95                 1             
460                95                 1             
465                95                 1             
470                95                 1             
475                95                 1             
480                95                 1             
485                95                 1             
490                95                 1             
495                95                 1.5           
500                95                 1.5           
505                95                 1             
510                95                 1             
515                95                 1             
520                95                 1             
525                95                 1             
530                95                 1             
535                95                 1             
540                95                 1             
545                95                 1             
550                95                 1             
555                95                 1             
560                95                 1             
565                95                 1             
570                95                 1             
575                95                 1             
580                95                 1             
585                95                 1             
590                95                 1             
595                95                 1             
600                95                 1             
605                95                 1             
610                95                 1             
615                95                 1             
620                95                 1             
625                95                 1             
630                95                 1             
635                95                 1             
640                95                 1             
645                95                 1             
650                95                 1             
655                95                 1             
660                95                 1             
665                95                 1             
670                95                 1             
675                95                 1             
680                95                 1             
685                95                 1             
690                95                 1             
695                95                 1             
700                95                 1             
705                95                 1             
710                95                 1             
715                95                 1             
720                95                 1             
725                95                 1             
730                95                 1             
735                95                 1             
740                95                 1             
745                95                 1             
750                95                 1             
755                95                 1             
760                95                 1             
765                95                 1             
770                95                 1             
775                95                 1             
780                95                 1             
785                95                 1             
790                95                 1             
795                95                 1             
800                95                 1             
805                95                 1             
810                95                 1             
815                95                 1             
820                95                 1             
825                95                 1             
830                95                 1             
835                95                 1             
840                95                 1             
845                95                 1             
850                95                 1             
855                95                 1             
860                95                 1             
865                95                 1             
870                95                 1             
875                95                 1             
880                95                 1             
885                95                 1             
890                95                 1             
895                95                 1             
900                95                 1             
905                95                 1             
910                95                 1             
915                95                 1             
920                95                 1             
925                95                 1             
930                95                 1             
935                95                 1             
940                95                 1             
945                95                 1             
950                95                 1             
955                95                 1             
960                95                 1             
965                95                 1             
970                95                 1             
975                95                 1             
980                95                 1             
985                95                 1             
990                95                 1             
995                95                 1             
1000               95                 1             
0                  100                1             
5                  100                1             
10                 100                1             
15                 100                1             
20                 100                1             
25                 100                1             
30                 100                1             
35                 100                1             
40                 100                1             
45                 100                1             
50                 100                1             
55                 100                1             
60                 100                1             
65                 100                1             
70                 100                1             
75                 100                1             
80                 100                1             
85                 100                1             
90                 100                1             
95                 100                1             
100                100                1             
105                100                1             
110                100                1             
115                100                1             
120                100                1             
125                100                1             
130                100                1             
135                100                1             
140                100                1             
145                100                1             
150                100                1             
155                100                1             
160                100                1             
165                100                1             
170                100                1             
175                100                1             
180                100                1             
185                100                1             
190                100                1             
195                100                1             
200                100                1             
205                100                1             
210                100                1             
215                100                1             
220                100                1             
225                100                1             
230                100                1             
235                100                1             
240                100                1             
245                100                1             
250                100                1             
255                100                1             
260                100                1             
265                100                1             
270                100                1             
275                100                1             
280                100                1             
285                100                1             
290                100                1             
295                100                1             
300                100                1             
305                100                1             
310                100                1             
315                100                1             
320                100                1             
325                100                1             
330                100                1             
335                100                1             
340                100                1             
345                100                1             
350                100                1             
355                100                1             
360                100                1             
365                100                1             
370                100                1             
375                100                1             
380                100                1             
385                100                1             
390                100                1             
395                100                1             
400                100                1             
405                100                1             
410                100                1             
415                100                1             
420                100                1             
425                100                1             
430                100                1             
435                100                1             
440                100                1             
445                100                1             
450                100                1             
455                100                1             
460                100                1             
465                100                1             
470                100                1             
475                100                1             
480                100                1             
485                100                1             
490                100                1             
495                100                1.5           
500                100                1.5           
505                100                1             
510                100                1             
515                100                1             
520                100                1             
525                100                1             
530                100                1             
535                100                1             
540                100                1             
545                100                1             
550                100                1             
555                100                1             
560                100                1             
565                100                1             
570                100                1             
575                100                1             
580                100                1             
585                100                1             
590                100                1             
595                100                1             
600                100                1             
605                100                1             
610                100                1             
615                100                1             
620                100                1             
625                100                1             
630                100                1             
635                100                1             
640                100                1             
645                100                1             
650                100                1             
655                100                1             
660                100                1             
665                100                1             
670                100                1             
675                100                1             
680                100                1             
685                100                1             
690                100                1             
695                100                1             
700                100                1             
705                100                1             
710                100                1             
715                100                1             
720                100                1             
725                100                1             
730                100                1             
735                100                1             
740                100                1             
745                100                1             
750                100                1             
755                100                1             
760                100                1             
765                100                1             
770                100                1             
775                100                1             
780                100                1             
785                100                1             
790                100                1             
795                100                1             
800                100                1             
805                100                1             
810                100                1             
815                100                1             
820                100                1             
825                100                1             
830                100                1             
835                100                1             
840                100                1             
845                100                1             
850                100                1             
855                100                1             
860                100                1             
865                100                1             
870                100                1             
875                100                1             
880                100                1             
885                100                1             
890                100                1             
895                100                1             
900                100                1             
905                100                1             
910                100                1             
915                100                1             
920                100                1             
925                100                1             
930                100                1             
935                100                1             
940                100                1             
945                100                1             
950                100                1             
955                100                1             
960                100                1             
965                100                1             
970                100                1             
975                100                1             
980                100                1             
985                100                1             
990                100                1             
995                100                1             
1000               100                1             

[2D_TRIANGLES]
;;V1     V2       V3       MANNINGS_N   TAG
0        1        202      0.03        
0        202      201      0.03        
1        2        202      0.03        
2        203      202      0.03        
2        3        204      0.03        
2        204      203      0.03        
3        4        204      0.03        
4        205      204      0.03        
4        5        206      0.03        
4        206      205      0.03        
5        6        206      0.03        
6        207      206      0.03        
6        7        208      0.03        
6        208      207      0.03        
7        8        208      0.03        
8        209      208      0.03        
8        9        210      0.03        
8        210      209      0.03        
9        10       210      0.03        
10       211      210      0.03        
10       11       212      0.03        
10       212      211      0.03        
11       12       212      0.03        
12       213      212      0.03        
12       13       214      0.03        
12       214      213      0.03        
13       14       214      0.03        
14       215      214      0.03        
14       15       216      0.03        
14       216      215      0.03        
15       16       216      0.03        
16       217      216      0.03        
16       17       218      0.03        
16       218      217      0.03        
17       18       218      0.03        
18       219      218      0.03        
18       19       220      0.03        
18       220      219      0.03        
19       20       220      0.03        
20       221      220      0.03        
20       21       222      0.03        
20       222      221      0.03        
21       22       222      0.03        
22       223      222      0.03        
22       23       224      0.03        
22       224      223      0.03        
23       24       224      0.03        
24       225      224      0.03        
24       25       226      0.03        
24       226      225      0.03        
25       26       226      0.03        
26       227      226      0.03        
26       27       228      0.03        
26       228      227      0.03        
27       28       228      0.03        
28       229      228      0.03        
28       29       230      0.03        
28       230      229      0.03        
29       30       230      0.03        
30       231      230      0.03        
30       31       232      0.03        
30       232      231      0.03        
31       32       232      0.03        
32       233      232      0.03        
32       33       234      0.03        
32       234      233      0.03        
33       34       234      0.03        
34       235      234      0.03        
34       35       236      0.03        
34       236      235      0.03        
35       36       236      0.03        
36       237      236      0.03        
36       37       238      0.03        
36       238      237      0.03        
37       38       238      0.03        
38       239      238      0.03        
38       39       240      0.03        
38       240      239      0.03        
39       40       240      0.03        
40       241      240      0.03        
40       41       242      0.03        
40       242      241      0.03        
41       42       242      0.03        
42       243      242      0.03        
42       43       244      0.03        
42       244      243      0.03        
43       44       244      0.03        
44       245      244      0.03        
44       45       246      0.03        
44       246      245      0.03        
45       46       246      0.03        
46       247      246      0.03        
46       47       248      0.03        
46       248      247      0.03        
47       48       248      0.03        
48       249      248      0.03        
48       49       250      0.03        
48       250      249      0.03        
49       50       250      0.03        
50       251      250      0.03        
50       51       252      0.03        
50       252      251      0.03        
51       52       252      0.03        
52       253      252      0.03        
52       53       254      0.03        
52       254      253      0.03        
53       54       254      0.03        
54       255      254      0.03        
54       55       256      0.03        
54       256      255      0.03        
55       56       256      0.03        
56       257      256      0.03        
56       57       258      0.03        
56       258      257      0.03        
57       58       258      0.03        
58       259      258      0.03        
58       59       260      0.03        
58       260      259      0.03        
59       60       260      0.03        
60       261      260      0.03        
60       61       262      0.03        
60       262      261      0.03        
61       62       262      0.03        
62       263      262      0.03        
62       63       264      0.03        
62       264      263      0.03        
63       64       264      0.03        
64       265      264      0.03        
64       65       266      0.03        
64       266      265      0.03        
65       66       266      0.03        
66       267      266      0.03        
66       67       268      0.03        
66       268      267      0.03        
67       68       268      0.03        
68       269      268      0.03        
68       69       270      0.03        
68       270      269      0.03        
69       70       270      0.03        
70       271      270      0.03        
70       71       272      0.03        
70       272      271      0.03        
71       72       272      0.03        
72       273      272      0.03        
72       73       274      0.03        
72       274      273      0.03        
73       74       274      0.03        
74       275      274      0.03        
74       75       276      0.03        
74       276      275      0.03        
75       76       276      0.03        
76       277      276      0.03        
76       77       278      0.03        
76       278      277      0.03        
77       78       278      0.03        
78       279      278      0.03        
78       79       280      0.03        
78       280      279      0.03        
79       80       280      0.03        
80       281      280      0.03        
80       81       282      0.03        
80       282      281      0.03        
81       82       282      0.03        
82       283      282      0.03        
82       83       284      0.03        
82       284      283      0.03        
83       84       284      0.03        
84       285      284      0.03        
84       85       286      0.03        
84       286      285      0.03        
85       86       286      0.03        
86       287      286      0.03        
86       87       288      0.03        
86       288      287      0.03        
87       88       288      0.03        
88       289      288      0.03        
88       89       290      0.03        
88       290      289      0.03        
89       90       290      0.03        
90       291      290      0.03        
90       91       292      0.03        
90       292      291      0.03        
91       92       292      0.03        
92       293      292      0.03        
92       93       294      0.03        
92       294      293      0.03        
93       94       294      0.03        
94       295      294      0.03        
94       95       296      0.03        
94       296      295      0.03        
95       96       296      0.03        
96       297      296      0.03        
96       97       298      0.03        
96       298      297      0.03        
97       98       298      0.03        
98       299      298      0.03        
98       99       300      0.03        
98       300      299      0.03        
99       100      300      0.03        
100      301      300      0.03        
100      101      302      0.03        
100      302      301      0.03        
101      102      302      0.03        
102      303      302      0.03        
102      103      304      0.03        
102      304      303      0.03        
103      104      304      0.03        
104      305      304      0.03        
104      105      306      0.03        
104      306      305      0.03        
105      106      306      0.03        
106      307      306      0.03        
106      107      308      0.03        
106      308      307      0.03        
107      108      308      0.03        
108      309      308      0.03        
108      109      310      0.03        
108      310      309      0.03        
109      110      310      0.03        
110      311      310      0.03        
110      111      312      0.03        
110      312      311      0.03        
111      112      312      0.03        
112      313      312      0.03        
112      113      314      0.03        
112      314      313      0.03        
113      114      314      0.03        
114      315      314      0.03        
114      115      316      0.03        
114      316      315      0.03        
115      116      316      0.03        
116      317      316      0.03        
116      117      318      0.03        
116      318      317      0.03        
117      118      318      0.03        
118      319      318      0.03        
118      119      320      0.03        
118      320      319      0.03        
119      120      320      0.03        
120      321      320      0.03        
120      121      322      0.03        
120      322      321      0.03        
121      122      322      0.03        
122      323      322      0.03        
122      123      324      0.03        
122      324      323      0.03        
123      124      324      0.03        
124      325      324      0.03        
124      125      326      0.03        
124      326      325      0.03        
125      126      326      0.03        
126      327      326      0.03        
126      127      328      0.03        
126      328      327      0.03        
127      128      328      0.03        
128      329      328      0.03        
128      129      330      0.03        
128      330      329      0.03        
129      130      330      0.03        
130      331      330      0.03        
130      131      332      0.03        
130      332      331      0.03        
131      132      332      0.03        
132      333      332      0.03        
132      133      334      0.03        
132      334      333      0.03        
133      134      334      0.03        
134      335      334      0.03        
134      135      336      0.03        
134      336      335      0.03        
135      136      336      0.03        
136      337      336      0.03        
136      137      338      0.03        
136      338      337      0.03        
137      138      338      0.03        
138      339      338      0.03        
138      139      340      0.03        
138      340      339      0.03        
139      140      340      0.03        
140      341      340      0.03        
140      141      342      0.03        
140      342      341      0.03        
141      142      342      0.03        
142      343      342      0.03        
142      143      344      0.03        
142      344      343      0.03        
143      144      344      0.03        
144      345      344      0.03        
144      145      346      0.03        
144      346      345      0.03        
145      146      346      0.03        
146      347      346      0.03        
146      147      348      0.03        
146      348      347      0.03        
147      148      348      0.03        
148      349      348      0.03        
148      149      350      0.03        
148      350      349      0.03        
149      150      350      0.03        
150      351      350      0.03        
150      151      352      0.03        
150      352      351      0.03        
151      152      352      0.03        
152      353      352      0.03        
152      153      354      0.03        
152      354      353      0.03        
153      154      354      0.03        
154      355      354      0.03        
154      155      356      0.03        
154      356      355      0.03        
155      156      356      0.03        
156      357      356      0.03        
156      157      358      0.03        
156      358      357      0.03        
157      158      358      0.03        
158      359      358      0.03        
158      159      360      0.03        
158      360      359      0.03        
159      160      360      0.03        
160      361      360      0.03        
160      161      362      0.03        
160      362      361      0.03        
161      162      362      0.03        
162      363      362      0.03        
162      163      364      0.03        
162      364      363      0.03        
163      164      364      0.03        
164      365      364      0.03        
164      165      366      0.03        
164      366      365      0.03        
165      166      366      0.03        
166      367      366      0.03        
166      167      368      0.03        
166      368      367      0.03        
167      168      368      0.03        
168      369      368      0.03        
168      169      370      0.03        
168      370      369      0.03        
169      170      370      0.03        
170      371      370      0.03        
170      171      372      0.03        
170      372      371      0.03        
171      172      372      0.03        
172      373      372      0.03        
172      173      374      0.03        
172      374      373      0.03        
173      174      374      0.03        
174      375      374      0.03        
174      175      376      0.03        
174      376      375      0.03        
175      176      376      0.03        
176      377      376      0.03        
176      177      378      0.03        
176      378      377      0.03        
177      178      378      0.03        
178      379      378      0.03        
178      179      380      0.03        
178      380      379      0.03        
179      180      380      0.03        
180      381      380      0.03        
180      181      382      0.03        
180      382      381      0.03        
181      182      382      0.03        
182      383      382      0.03        
182      183      384      0.03        
182      384      383      0.03        
183      184      384      0.03        
184      385      384      0.03        
184      185      386      0.03        
184      386      385      0.03        
185      186      386      0.03        
186      387      386      0.03        
186      187      388      0.03        
186      388      387      0.03        
187      188      388      0.03        
188      389      388      0.03        
188      189      390      0.03        
188      390      389      0.03        
189      190      390      0.03        
190      391      390      0.03        
190      191      392      0.03        
190      392      391      0.03        
191      192      392      0.03        
192      393      392      0.03        
192      193      394      0.03        
192      394      393      0.03        
193      194      394      0.03        
194      395      394      0.03        
194      195      396      0.03        
194      396      395      0.03        
195      196      396      0.03        
196      397      396      0.03        
196      197      398      0.03        
196      398      397      0.03        
197      198      398      0.03        
198      399      398      0.03        
198      199      400      0.03        
198      400      399      0.03        
199      200      400      0.03        
200      401      400      0.03        
201      202      402      0.03        
202      403      402      0.03        
202      203      404      0.03        
202      404      403      0.03        
203      204      404      0.03        
204      405      404      0.03        
204      205      406      0.03        
204      406      405      0.03        
205      206      406      0.03        
206      407      406      0.03        
206      207      408      0.03        
206      408      407      0.03        
207      208      408      0.03        
208      409      408      0.03        
208      209      410      0.03        
208      410      409      0.03        
209      210      410      0.03        
210      411      410      0.03        
210      211      412      0.03        
210      412      411      0.03        
211      212      412      0.03        
212      413      412      0.03        
212      213      414      0.03        
212      414      413      0.03        
213      214      414      0.03        
214      415      414      0.03        
214      215      416      0.03        
214      416      415      0.03        
215      216      416      0.03        
216      417      416      0.03        
216      217      418      0.03        
216      418      417      0.03        
217      218      418      0.03        
218      419      418      0.03        
218      219      420      0.03        
218      420      419      0.03        
219      220      420      0.03        
220      421      420      0.03        
220      221      422      0.03        
220      422      421      0.03        
221      222      422      0.03        
222      423      422      0.03        
222      223      424      0.03        
222      424      423      0.03        
223      224      424      0.03        
224      425      424      0.03        
224      225      426      0.03        
224      426      425      0.03        
225      226      426      0.03        
226      427      426      0.03        
226      227      428      0.03        
226      428      427      0.03        
227      228      428      0.03        
228      429      428      0.03        
228      229      430      0.03        
228      430      429      0.03        
229      230      430      0.03        
230      431      430      0.03        
230      231      432      0.03        
230      432      431      0.03        
231      232      432      0.03        
232      433      432      0.03        
232      233      434      0.03        
232      434      433      0.03        
233      234      434      0.03        
234      435      434      0.03        
234      235      436      0.03        
234      436      435      0.03        
235      236      436      0.03        
236      437      436      0.03        
236      237      438      0.03        
236      438      437      0.03        
237      238      438      0.03        
238      439      438      0.03        
238      239      440      0.03        
238      440      439      0.03        
239      240      440      0.03        
240      441      440      0.03        
240      241      442      0.03        
240      442      441      0.03        
241      242      442      0.03        
242      443      442      0.03        
242      243      444      0.03        
242      444      443      0.03        
243      244      444      0.03        
244      445      444      0.03        
244      245      446      0.03        
244      446      445      0.03        
245      246      446      0.03        
246      447      446      0.03        
246      247      448      0.03        
246      448      447      0.03        
247      248      448      0.03        
248      449      448      0.03        
248      249      450      0.03        
248      450      449      0.03        
249      250      450      0.03        
250      451      450      0.03        
250      251      452      0.03        
250      452      451      0.03        
251      252      452      0.03        
252      453      452      0.03        
252      253      454      0.03        
252      454      453      0.03        
253      254      454      0.03        
254      455      454      0.03        
254      255      456      0.03        
254      456      455      0.03        
255      256      456      0.03        
256      457      456      0.03        
256      257      458      0.03        
256      458      457      0.03        
257      258      458      0.03        
258      459      458      0.03        
258      259      460      0.03        
258      460      459      0.03        
259      260      460      0.03        
260      461      460      0.03        
260      261      462      0.03        
260      462      461      0.03        
261      262      462      0.03        
262      463      462      0.03        
262      263      464      0.03        
262      464      463      0.03        
263      264      464      0.03        
264      465      464      0.03        
264      265      466      0.03        
264      466      465      0.03        
265      266      466      0.03        
266      467      466      0.03        
266      267      468      0.03        
266      468      467      0.03        
267      268      468      0.03        
268      469      468      0.03        
268      269      470      0.03        
268      470      469      0.03        
269      270      470      0.03        
270      471      470      0.03        
270      271      472      0.03        
270      472      471      0.03        
271      272      472      0.03        
272      473      472      0.03        
272      273      474      0.03        
272      474      473      0.03        
273      274      474      0.03        
274      475      474      0.03        
274      275      476      0.03        
274      476      475      0.03        
275      276      476      0.03        
276      477      476      0.03        
276      277      478      0.03        
276      478      477      0.03        
277      278      478      0.03        
278      479      478      0.03        
278      279      480      0.03        
278      480      479      0.03        
279      280      480      0.03        
280      481      480      0.03        
280      281      482      0.03        
280      482      481      0.03        
281      282      482      0.03        
282      483      482      0.03        
282      283      484      0.03        
282      484      483      0.03        
283      284      484      0.03        
284      485      484      0.03        
284      285      486      0.03        
284      486      485      0.03        
285      286      486      0.03        
286      487      486      0.03        
286      287      488      0.03        
286      488      487      0.03        
287      288      488      0.03        
288      489      488      0.03        
288      289      490      0.03        
288      490      489      0.03        
289      290      490      0.03        
290      491      490      0.03        
290      291      492      0.03        
290      492      491      0.03        
291      292      492      0.03        
292      493      492      0.03        
292      293      494      0.03        
292      494      493      0.03        
293      294      494      0.03        
294      495      494      0.03        
294      295      496      0.03        
294      496      495      0.03        
295      296      496      0.03        
296      497      496      0.03        
296      297      498      0.03        
296      498      497      0.03        
297      298      498      0.03        
298      499      498      0.03        
298      299      500      0.03        
298      500      499      0.03        
299      300      500      0.03        
300      501      500      0.03        
300      301      502      0.03        
300      502      501      0.03        
301      302      502      0.03        
302      503      502      0.03        
302      303      504      0.03        
302      504      503      0.03        
303      304      504      0.03        
304      505      504      0.03        
304      305      506      0.03        
304      506      505      0.03        
305      306      506      0.03        
306      507      506      0.03        
306      307      508      0.03        
306      508      507      0.03        
307      308      508      0.03        
308      509      508      0.03        
308      309      510      0.03        
308      510      509      0.03        
309      310      510      0.03        
310      511      510      0.03        
310      311      512      0.03        
310      512      511      0.03        
311      312      512      0.03        
312      513      512      0.03        
312      313      514      0.03        
312      514      513      0.03        
313      314      514      0.03        
314      515      514      0.03        
314      315      516      0.03        
314      516      515      0.03        
315      316      516      0.03        
316      517      516      0.03        
316      317      518      0.03        
316      518      517      0.03        
317      318      518      0.03        
318      519      518      0.03        
318      319      520      0.03        
318      520      519      0.03        
319      320      520      0.03        
320      521      520      0.03        
320      321      522      0.03        
320      522      521      0.03        
321      322      522      0.03        
322      523      522      0.03        
322      323      524      0.03        
322      524      523      0.03        
323      324      524      0.03        
324      525      524      0.03        
324      325      526      0.03        
324      526      525      0.03        
325      326      526      0.03        
326      527      526      0.03        
326      327      528      0.03        
326      528      527      0.03        
327      328      528      0.03        
328      529      528      0.03        
328      329      530      0.03        
328      530      529      0.03        
329      330      530      0.03        
330      531      530      0.03        
330      331      532      0.03        
330      532      531      0.03        
331      332      532      0.03        
332      533      532      0.03        
332      333      534      0.03        
332      534      533      0.03        
333      334      534      0.03        
334      535      534      0.03        
334      335      536      0.03        
334      536      535      0.03        
335      336      536      0.03        
336      537      536      0.03        
336      337      538      0.03        
336      538      537      0.03        
337      338      538      0.03        
338      539      538      0.03        
338      339      540      0.03        
338      540      539      0.03        
339      340      540      0.03        
340      541      540      0.03        
340      341      542      0.03        
340      542      541      0.03        
341      342      542      0.03        
342      543      542      0.03        
342      343      544      0.03        
342      544      543      0.03        
343      344      544      0.03        
344      545      544      0.03        
344      345      546      0.03        
344      546      545      0.03        
345      346      546      0.03        
346      547      546      0.03        
346      347      548      0.03        
346      548      547      0.03        
347      348      548      0.03        
348      549      548      0.03        
348      349      550      0.03        
348      550      549      0.03        
349      350      550      0.03        
350      551      550      0.03        
350      351      552      0.03        
350      552      551      0.03        
351      352      552      0.03        
352      553      552      0.03        
352      353      554      0.03        
352      554      553      0.03        
353      354      554      0.03        
354      555      554      0.03        
354      355      556      0.03        
354      556      555      0.03        
355      356      556      0.03        
356      557      556      0.03        
356      357      558      0.03        
356      558      557      0.03        
357      358      558      0.03        
358      559      558      0.03        
358      359      560      0.03        
358      560      559      0.03        
359      360      560      0.03        
360      561      560      0.03        
360      361      562      0.03        
360      562      561      0.03        
361      362      562      0.03        
362      563      562      0.03        
362      363      564      0.03        
362      564      563      0.03        
363      364      564      0.03        
364      565      564      0.03        
364      365      566      0.03        
364      566      565      0.03        
365      366      566      0.03        
366      567      566      0.03        
366      367      568      0.03        
366      568      567      0.03        
367      368      568      0.03        
368      569      568      0.03        
368      369      570      0.03        
368      570      569      0.03        
369      370      570      0.03        
370      571      570      0.03        
370      371      572      0.03        
370      572      571      0.03        
371      372      572      0.03        
372      573      572      0.03        
372      373      574      0.03        
372      574      573      0.03        
373      374      574      0.03        
374      575      574      0.03        
374      375      576      0.03        
374      576      575      0.03        
375      376      576      0.03        
376      577      576      0.03        
376      377      578      0.03        
376      578      577      0.03        
377      378      578      0.03        
378      579      578      0.03        
378      379      580      0.03        
378      580      579      0.03        
379      380      580      0.03        
380      581      580      0.03        
380      381      582      0.03        
380      582      581      0.03        
381      382      582      0.03        
382      583      582      0.03        
382      383      584      0.03        
382      584      583      0.03        
383      384      584      0.03        
384      585      584      0.03        
384      385      586      0.03        
384      586      585      0.03        
385      386      586      0.03        
386      587      586      0.03        
386      387      588      0.03        
386      588      587      0.03        
387      388      588      0.03        
388      589      588      0.03        
388      389      590      0.03        
388      590      589      0.03        
389      390      590      0.03        
390      591      590      0.03        
390      391      592      0.03        
390      592      591      0.03        
391      392      592      0.03        
392      593      592      0.03        
392      393      594      0.03        
392      594      593      0.03        
393      394      594      0.03        
394      595      594      0.03        
394      395      596      0.03        
394      596      595      0.03        
395      396      596      0.03        
396      597      596      0.03        
396      397      598      0.03        
396      598      597      0.03        
397      398      598      0.03        
398      599      598      0.03        
398      399      600      0.03        
398      600      599      0.03        
399      400      600      0.03        
400      601      600      0.03        
400      401      602      0.03        
400      602      601      0.03        
402      403      604      0.03        
402      604      603      0.03        
403      404      604      0.03        
404      605      604      0.03        
404      405      606      0.03        
404      606      605      0.03        
405      406      606      0.03        
406      607      606      0.03        
406      407      608      0.03        
406      608      607      0.03        
407      408      608      0.03        
408      609      608      0.03        
408      409      610      0.03        
408      610      609      0.03        
409      410      610      0.03        
410      611      610      0.03        
410      411      612      0.03        
410      612      611      0.03        
411      412      612      0.03        
412      613      612      0.03        
412      413      614      0.03        
412      614      613      0.03        
413      414      614      0.03        
414      615      614      0.03        
414      415      616      0.03        
414      616      615      0.03        
415      416      616      0.03        
416      617      616      0.03        
416      417      618      0.03        
416      618      617      0.03        
417      418      618      0.03        
418      619      618      0.03        
418      419      620      0.03        
418      620      619      0.03        
419      420      620      0.03        
420      621      620      0.03        
420      421      622      0.03        
420      622      621      0.03        
421      422      622      0.03        
422      623      622      0.03        
422      423      624      0.03        
422      624      623      0.03        
423      424      624      0.03        
424      625      624      0.03        
424      425      626      0.03        
424      626      625      0.03        
425      426      626      0.03        
426      627      626      0.03        
426      427      628      0.03        
426      628      627      0.03        
427      428      628      0.03        
428      629      628      0.03        
428      429      630      0.03        
428      630      629      0.03        
429      430      630      0.03        
430      631      630      0.03        
430      431      632      0.03        
430      632      631      0.03        
431      432      632      0.03        
432      633      632      0.03        
432      433      634      0.03        
432      634      633      0.03        
433      434      634      0.03        
434      635      634      0.03        
434      435      636      0.03        
434      636      635      0.03        
435      436      636      0.03        
436      637      636      0.03        
436      437      638      0.03        
436      638      637      0.03        
437      438      638      0.03        
438      639      638      0.03        
438      439      640      0.03        
438      640      639      0.03        
439      440      640      0.03        
440      641      640      0.03        
440      441      642      0.03        
440      642      641      0.03        
441      442      642      0.03        
442      643      642      0.03        
442      443      644      0.03        
442      644      643      0.03        
443      444      644      0.03        
444      645      644      0.03        
444      445      646      0.03        
444      646      645      0.03        
445      446      646      0.03        
446      647      646      0.03        
446      447      648      0.03        
446      648      647      0.03        
447      448      648      0.03        
448      649      648      0.03        
448      449      650      0.03        
448      650      649      0.03        
449      450      650      0.03        
450      651      650      0.03        
450      451      652      0.03        
450      652      651      0.03        
451      452      652      0.03        
452      653      652      0.03        
452      453      654      0.03        
452      654      653      0.03        
453      454      654      0.03        
454      655      654      0.03        
454      455      656      0.03        
454      656      655      0.03        
455      456      656      0.03        
456      657      656      0.03        
456      457      658      0.03        
456      658      657      0.03        
457      458      658      0.03        
458      659      658      0.03        
458      459      660      0.03        
458      660      659      0.03        
459      460      660      0.03        
460      661      660      0.03        
460      461      662      0.03        
460      662      661      0.03        
461      462      662      0.03        
462      663      662      0.03        
462      463      664      0.03        
462      664      663      0.03        
463      464      664      0.03        
464      665      664      0.03        
464      465      666      0.03        
464      666      665      0.03        
465      466      666      0.03        
466      667      666      0.03        
466      467      668      0.03        
466      668      667      0.03        
467      468      668      0.03        
468      669      668      0.03        
468      469      670      0.03        
468      670      669      0.03        
469      470      670      0.03        
470      671      670      0.03        
470      471      672      0.03        
470      672      671      0.03        
471      472      672      0.03        
472      673      672      0.03        
472      473      674      0.03        
472      674      673      0.03        
473      474      674      0.03        
474      675      674      0.03        
474      475      676      0.03        
474      676      675      0.03        
475      476      676      0.03        
476      677      676      0.03        
476      477      678      0.03        
476      678      677      0.03        
477      478      678      0.03        
478      679      678      0.03        
478      479      680      0.03        
478      680      679      0.03        
479      480      680      0.03        
480      681      680      0.03        
480      481      682      0.03        
480      682      681      0.03        
481      482      682      0.03        
482      683      682      0.03        
482      483      684      0.03        
482      684      683      0.03        
483      484      684      0.03        
484      685      684      0.03        
484      485      686      0.03        
484      686      685      0.03        
485      486      686      0.03        
486      687      686      0.03        
486      487      688      0.03        
486      688      687      0.03        
487      488      688      0.03        
488      689      688      0.03        
488      489      690      0.03        
488      690      689      0.03        
489      490      690      0.03        
490      691      690      0.03        
490      491      692      0.03        
490      692      691      0.03        
491      492      692      0.03        
492      693      692      0.03        
492      493      694      0.03        
492      694      693      0.03        
493      494      694      0.03        
494      695      694      0.03        
494      495      696      0.03        
494      696      695      0.03        
495      496      696      0.03        
496      697      696      0.03        
496      497      698      0.03        
496      698      697      0.03        
497      498      698      0.03        
498      699      698      0.03        
498      499      700      0.03        
498      700      699      0.03        
499      500      700      0.03        
500      701      700      0.03        
500      501      702      0.03        
500      702      701      0.03        
501      502      702      0.03        
502      703      702      0.03        
502      503      704      0.03        
502      704      703      0.03        
503      504      704      0.03        
504      705      704      0.03        
504      505      706      0.03        
504      706      705      0.03        
505      506      706      0.03        
506      707      706      0.03        
506      507      708      0.03        
506      708      707      0.03        
507      508      708      0.03        
508      709      708      0.03        
508      509      710      0.03        
508      710      709      0.03        
509      510      710      0.03        
510      711      710      0.03        
510      511      712      0.03        
510      712      711      0.03        
511      512      712      0.03        
512      713      712      0.03        
512      513      714      0.03        
512      714      713      0.03        
513      514      714      0.03        
514      715      714      0.03        
514      515      716      0.03        
514      716      715      0.03        
515      516      716      0.03        
516      717      716      0.03        
516      517      718      0.03        
516      718      717      0.03        
517      518      718      0.03        
518      719      718      0.03        
518      519      720      0.03        
518      720      719      0.03        
519      520      720      0.03        
520      721      720      0.03        
520      521      722      0.03        
520      722      721      0.03        
521      522      722      0.03        
522      723      722      0.03        
522      523      724      0.03        
522      724      723      0.03        
523      524      724      0.03        
524      725      724      0.03        
524      525      726      0.03        
524      726      725      0.03        
525      526      726      0.03        
526      727      726      0.03        
526      527      728      0.03        
526      728      727      0.03        
527      528      728      0.03        
528      729      728      0.03        
528      529      730      0.03        
528      730      729      0.03        
529      530      730      0.03        
530      731      730      0.03        
530      531      732      0.03        
530      732      731      0.03        
531      532      732      0.03        
532      733      732      0.03        
532      533      734      0.03        
532      734      733      0.03        
533      534      734      0.03        
534      735      734      0.03        
534      535      736      0.03        
534      736      735      0.03        
535      536      736      0.03        
536      737      736      0.03        
536      537      738      0.03        
536      738      737      0.03        
537      538      738      0.03        
538      739      738      0.03        
538      539      740      0.03        
538      740      739      0.03        
539      540      740      0.03        
540      741      740      0.03        
540      541      742      0.03        
540      742      741      0.03        
541      542      742      0.03        
542      743      742      0.03        
542      543      744      0.03        
542      744      743      0.03        
543      544      744      0.03        
544      745      744      0.03        
544      545      746      0.03        
544      746      745      0.03        
545      546      746      0.03        
546      747      746      0.03        
546      547      748      0.03        
546      748      747      0.03        
547      548      748      0.03        
548      749      748      0.03        
548      549      750      0.03        
548      750      749      0.03        
549      550      750      0.03        
550      751      750      0.03        
550      551      752      0.03        
550      752      751      0.03        
551      552      752      0.03        
552      753      752      0.03        
552      553      754      0.03        
552      754      753      0.03        
553      554      754      0.03        
554      755      754      0.03        
554      555      756      0.03        
554      756      755      0.03        
555      556      756      0.03        
556      757      756      0.03        
556      557      758      0.03        
556      758      757      0.03        
557      558      758      0.03        
558      759      758      0.03        
558      559      760      0.03        
558      760      759      0.03        
559      560      760      0.03        
560      761      760      0.03        
560      561      762      0.03        
560      762      761      0.03        
561      562      762      0.03        
562      763      762      0.03        
562      563      764      0.03        
562      764      763      0.03        
563      564      764      0.03        
564      765      764      0.03        
564      565      766      0.03        
564      766      765      0.03        
565      566      766      0.03        
566      767      766      0.03        
566      567      768      0.03        
566      768      767      0.03        
567      568      768      0.03        
568      769      768      0.03        
568      569      770      0.03        
568      770      769      0.03        
569      570      770      0.03        
570      771      770      0.03        
570      571      772      0.03        
570      772      771      0.03        
571      572      772      0.03        
572      773      772      0.03        
572      573      774      0.03        
572      774      773      0.03        
573      574      774      0.03        
574      775      774      0.03        
574      575      776      0.03        
574      776      775      0.03        
575      576      776      0.03        
576      777      776      0.03        
576      577      778      0.03        
576      778      777      0.03        
577      578      778      0.03        
578      779      778      0.03        
578      579      780      0.03        
578      780      779      0.03        
579      580      780      0.03        
580      781      780      0.03        
580      581      782      0.03        
580      782      781      0.03        
581      582      782      0.03        
582      783      782      0.03        
582      583      784      0.03        
582      784      783      0.03        
583      584      784      0.03        
584      785      784      0.03        
584      585      786      0.03        
584      786      785      0.03        
585      586      786      0.03        
586      787      786      0.03        
586      587      788      0.03        
586      788      787      0.03        
587      588      788      0.03        
588      789      788      0.03        
588      589      790      0.03        
588      790      789      0.03        
589      590      790      0.03        
590      791      790      0.03        
590      591      792      0.03        
590      792      791      0.03        
591      592      792      0.03        
592      793      792      0.03        
592      593      794      0.03        
592      794      793      0.03        
593      594      794      0.03        
594      795      794      0.03        
594      595      796      0.03        
594      796      795      0.03        
595      596      796      0.03        
596      797      796      0.03        
596      597      798      0.03        
596      798      797      0.03        
597      598      798      0.03        
598      799      798      0.03        
598      599      800      0.03        
598      800      799      0.03        
599      600      800      0.03        
600      801      800      0.03        
600      601      802      0.03        
600      802      801      0.03        
601      602      802      0.03        
602      803      802      0.03        
603      604      804      0.03        
604      805      804      0.03        
604      605      806      0.03        
604      806      805      0.03        
605      606      806      0.03        
606      807      806      0.03        
606      607      808      0.03        
606      808      807      0.03        
607      608      808      0.03        
608      809      808      0.03        
608      609      810      0.03        
608      810      809      0.03        
609      610      810      0.03        
610      811      810      0.03        
610      611      812      0.03        
610      812      811      0.03        
611      612      812      0.03        
612      813      812      0.03        
612      613      814      0.03        
612      814      813      0.03        
613      614      814      0.03        
614      815      814      0.03        
614      615      816      0.03        
614      816      815      0.03        
615      616      816      0.03        
616      817      816      0.03        
616      617      818      0.03        
616      818      817      0.03        
617      618      818      0.03        
618      819      818      0.03        
618      619      820      0.03        
618      820      819      0.03        
619      620      820      0.03        
620      821      820      0.03        
620      621      822      0.03        
620      822      821      0.03        
621      622      822      0.03        
622      823      822      0.03        
622      623      824      0.03        
622      824      823      0.03        
623      624      824      0.03        
624      825      824      0.03        
624      625      826      0.03        
624      826      825      0.03        
625      626      826      0.03        
626      827      826      0.03        
626      627      828      0.03        
626      828      827      0.03        
627      628      828      0.03        
628      829      828      0.03        
628      629      830      0.03        
628      830      829      0.03        
629      630      830      0.03        
630      831      830      0.03        
630      631      832      0.03        
630      832      831      0.03        
631      632      832      0.03        
632      833      832      0.03        
632      633      834      0.03        
632      834      833      0.03        
633      634      834      0.03        
634      835      834      0.03        
634      635      836      0.03        
634      836      835      0.03        
635      636      836      0.03        
636      837      836      0.03        
636      637      838      0.03        
636      838      837      0.03        
637      638      838      0.03        
638      839      838      0.03        
638      639      840      0.03        
638      840      839      0.03        
639      640      840      0.03        
640      841      840      0.03        
640      641      842      0.03        
640      842      841      0.03        
641      642      842      0.03        
642      843      842      0.03        
642      643      844      0.03        
642      844      843      0.03        
643      644      844      0.03        
644      845      844      0.03        
644      645      846      0.03        
644      846      845      0.03        
645      646      846      0.03        
646      847      846      0.03        
646      647      848      0.03        
646      848      847      0.03        
647      648      848      0.03        
648      849      848      0.03        
648      649      850      0.03        
648      850      849      0.03        
649      650      850      0.03        
650      851      850      0.03        
650      651      852      0.03        
650      852      851      0.03        
651      652      852      0.03        
652      853      852      0.03        
652      653      854      0.03        
652      854      853      0.03        
653      654      854      0.03        
654      855      854      0.03        
654      655      856      0.03        
654      856      855      0.03        
655      656      856      0.03        
656      857      856      0.03        
656      657      858      0.03        
656      858      857      0.03        
657      658      858      0.03        
658      859      858      0.03        
658      659      860      0.03        
658      860      859      0.03        
659      660      860      0.03        
660      861      860      0.03        
660      661      862      0.03        
660      862      861      0.03        
661      662      862      0.03        
662      863      862      0.03        
662      663      864      0.03        
662      864      863      0.03        
663      664      864      0.03        
664      865      864      0.03        
664      665      866      0.03        
664      866      865      0.03        
665      666      866      0.03        
666      867      866      0.03        
666      667      868      0.03        
666      868      867      0.03        
667      668      868      0.03        
668      869      868      0.03        
668      669      870      0.03        
668      870      869      0.03        
669      670      870      0.03        
670      871      870      0.03        
670      671      872      0.03        
670      872      871      0.03        
671      672      872      0.03        
672      873      872      0.03        
672      673      874      0.03        
672      874      873      0.03        
673      674      874      0.03        
674      875      874      0.03        
674      675      876      0.03        
674      876      875      0.03        
675      676      876      0.03        
676      877      876      0.03        
676      677      878      0.03        
676      878      877      0.03        
677      678      878      0.03        
678      879      878      0.03        
678      679      880      0.03        
678      880      879      0.03        
679      680      880      0.03        
680      881      880      0.03        
680      681      882      0.03        
680      882      881      0.03        
681      682      882      0.03        
682      883      882      0.03        
682      683      884      0.03        
682      884      883      0.03        
683      684      884      0.03        
684      885      884      0.03        
684      685      886      0.03        
684      886      885      0.03        
685      686      886      0.03        
686      887      886      0.03        
686      687      888      0.03        
686      888      887      0.03        
687      688      888      0.03        
688      889      888      0.03        
688      689      890      0.03        
688      890      889      0.03        
689      690      890      0.03        
690      891      890      0.03        
690      691      892      0.03        
690      892      891      0.03        
691      692      892      0.03        
692      893      892      0.03        
692      693      894      0.03        
692      894      893      0.03        
693      694      894      0.03        
694      895      894      0.03        
694      695      896      0.03        
694      896      895      0.03        
695      696      896      0.03        
696      897      896      0.03        
696      697      898      0.03        
696      898      897      0.03        
697      698      898      0.03        
698      899      898      0.03        
698      699      900      0.03        
698      900      899      0.03        
699      700      900      0.03        
700      901      900      0.03        
700      701      902      0.03        
700      902      901      0.03        
701      702      902      0.03        
702      903      902      0.03        
702      703      904      0.03        
702      904      903      0.03        
703      704      904      0.03        
704      905      904      0.03        
704      705      906      0.03        
704      906      905      0.03        
705      706      906      0.03        
706      907      906      0.03        
706      707      908      0.03        
706      908      907      0.03        
707      708      908      0.03        
708      909      908      0.03        
708      709      910      0.03        
708      910      909      0.03        
709      710      910      0.03        
710      911      910      0.03        
710      711      912      0.03        
710      912      911      0.03        
711      712      912      0.03        
712      913      912      0.03        
712      713      914      0.03        
712      914      913      0.03        
713      714      914      0.03        
714      915      914      0.03        
714      715      916      0.03        
714      916      915      0.03        
715      716      916      0.03        
716      917      916      0.03        
716      717      918      0.03        
716      918      917      0.03        
717      718      918      0.03        
718      919      918      0.03        
718      719      920      0.03        
718      920      919      0.03        
719      720      920      0.03        
720      921      920      0.03        
720      721      922      0.03        
720      922      921      0.03        
721      722      922      0.03        
722      923      922      0.03        
722      723      924      0.03        
722      924      923      0.03        
723      724      924      0.03        
724      925      924      0.03        
724      725      926      0.03        
724      926      925      0.03        
725      726      926      0.03        
726      927      926      0.03        
726      727      928      0.03        
726      928      927      0.03        
727      728      928      0.03        
728      929      928      0.03        
728      729      930      0.03        
728      930      929      0.03        
729      730      930      0.03        
730      931      930      0.03        
730      731      932      0.03        
730      932      931      0.03        
731      732      932      0.03        
732      933      932      0.03        
732      733      934      0.03        
732      934      933      0.03        
733      734      934      0.03        
734      935      934      0.03        
734      735      936      0.03        
734      936      935      0.03        
735      736      936      0.03        
736      937      936      0.03        
736      737      938      0.03        
736      938      937      0.03        
737      738      938      0.03        
738      939      938      0.03        
738      739      940      0.03        
738      940      939      0.03        
739      740      940      0.03        
740      941      940      0.03        
740      741      942      0.03        
740      942      941      0.03        
741      742      942      0.03        
742      943      942      0.03        
742      743      944      0.03        
742      944      943      0.03        
743      744      944      0.03        
744      945      944      0.03        
744      745      946      0.03        
744      946      945      0.03        
745      746      946      0.03        
746      947      946      0.03        
746      747      948      0.03        
746      948      947      0.03        
747      748      948      0.03        
748      949      948      0.03        
748      749      950      0.03        
748      950      949      0.03        
749      750      950      0.03        
750      951      950      0.03        
750      751      952      0.03        
750      952      951      0.03        
751      752      952      0.03        
752      953      952      0.03        
752      753      954      0.03        
752      954      953      0.03        
753      754      954      0.03        
754      955      954      0.03        
754      755      956      0.03        
754      956      955      0.03        
755      756      956      0.03        
756      957      956      0.03        
756      757      958      0.03        
756      958      957      0.03        
757      758      958      0.03        
758      959      958      0.03        
758      759      960      0.03        
758      960      959      0.03        
759      760      960      0.03        
760      961      960      0.03        
760      761      962      0.03        
760      962      961      0.03        
761      762      962      0.03        
762      963      962      0.03        
762      763      964      0.03        
762      964      963      0.03        
763      764      964      0.03        
764      965      964      0.03        
764      765      966      0.03        
764      966      965      0.03        
765      766      966      0.03        
766      967      966      0.03        
766      767      968      0.03        
766      968      967      0.03        
767      768      968      0.03        
768      969      968      0.03        
768      769      970      0.03        
768      970      969      0.03        
769      770      970      0.03        
770      971      970      0.03        
770      771      972      0.03        
770      972      971      0.03        
771      772      972      0.03        
772      973      972      0.03        
772      773      974      0.03        
772      974      973      0.03        
773      774      974      0.03        
774      975      974      0.03        
774      775      976      0.03        
774      976      975      0.03        
775      776      976      0.03        
776      977      976      0.03        
776      777      978      0.03        
776      978      977      0.03        
777      778      978      0.03        
778      979      978      0.03        
778      779      980      0.03        
778      980      979      0.03        
779      780      980      0.03        
780      981      980      0.03        
780      781      982      0.03        
780      982      981      0.03        
781      782      982      0.03        
782      983      982      0.03        
782      783      984      0.03        
782      984      983      0.03        
783      784      984      0.03        
784      985      984      0.03        
784      785      986      0.03        
784      986      985      0.03        
785      786      986      0.03        
786      987      986      0.03        
786      787      988      0.03        
786      988      987      0.03        
787      788      988      0.03        
788      989      988      0.03        
788      789      990      0.03        
788      990      989      0.03        
789      790      990      0.03        
790      991      990      0.03        
790      791      992      0.03        
790      992      991      0.03        
791      792      992      0.03        
792      993      992      0.03        
792      793      994      0.03        
792      994      993      0.03        
793      794      994      0.03        
794      995      994      0.03        
794      795      996      0.03        
794      996      995      0.03        
795      796      996      0.03        
796      997      996      0.03        
796      797      998      0.03        
796      998      997      0.03        
797      798      998      0.03        
798      999      998      0.03        
798      799      1000     0.03        
798      1000     999      0.03        
799      800      1000     0.03        
800      1001     1000     0.03        
800      801      1002     0.03        
800      1002     1001     0.03        
801      802      1002     0.03        
802      1003     1002     0.03        
802      803      1004     0.03        
802      1004     1003     0.03        
804      805      1006     0.03        
804      1006     1005     0.03        
805      806      1006     0.03        
806      1007     1006     0.03        
806      807      1008     0.03        
806      1008     1007     0.03        
807      808      1008     0.03        
808      1009     1008     0.03        
808      809      1010     0.03        
808      1010     1009     0.03        
809      810      1010     0.03        
810      1011     1010     0.03        
810      811      1012     0.03        
810      1012     1011     0.03        
811      812      1012     0.03        
812      1013     1012     0.03        
812      813      1014     0.03        
812      1014     1013     0.03        
813      814      1014     0.03        
814      1015     1014     0.03        
814      815      1016     0.03        
814      1016     1015     0.03        
815      816      1016     0.03        
816      1017     1016     0.03        
816      817      1018     0.03        
816      1018     1017     0.03        
817      818      1018     0.03        
818      1019     1018     0.03        
818      819      1020     0.03        
818      1020     1019     0.03        
819      820      1020     0.03        
820      1021     1020     0.03        
820      821      1022     0.03        
820      1022     1021     0.03        
821      822      1022     0.03        
822      1023     1022     0.03        
822      823      1024     0.03        
822      1024     1023     0.03        
823      824      1024     0.03        
824      1025     1024     0.03        
824      825      1026     0.03        
824      1026     1025     0.03        
825      826      1026     0.03        
826      1027     1026     0.03        
826      827      1028     0.03        
826      1028     1027     0.03        
827      828      1028     0.03        
828      1029     1028     0.03        
828      829      1030     0.03        
828      1030     1029     0.03        
829      830      1030     0.03        
830      1031     1030     0.03        
830      831      1032     0.03        
830      1032     1031     0.03        
831      832      1032     0.03        
832      1033     1032     0.03        
832      833      1034     0.03        
832      1034     1033     0.03        
833      834      1034     0.03        
834      1035     1034     0.03        
834      835      1036     0.03        
834      1036     1035     0.03        
835      836      1036     0.03        
836      1037     1036     0.03        
836      837      1038     0.03        
836      1038     1037     0.03        
837      838      1038     0.03        
838      1039     1038     0.03        
838      839      1040     0.03        
838      1040     1039     0.03        
839      840      1040     0.03        
840      1041     1040     0.03        
840      841      1042     0.03        
840      1042     1041     0.03        
841      842      1042     0.03        
842      1043     1042     0.03        
842      843      1044     0.03        
842      1044     1043     0.03        
843      844      1044     0.03        
844      1045     1044     0.03        
844      845      1046     0.03        
844      1046     1045     0.03        
845      846      1046     0.03        
846      1047     1046     0.03        
846      847      1048     0.03        
846      1048     1047     0.03        
847      848      1048     0.03        
848      1049     1048     0.03        
848      849      1050     0.03        
848      1050     1049     0.03        
849      850      1050     0.03        
850      1051     1050     0.03        
850      851      1052     0.03        
850      1052     1051     0.03        
851      852      1052     0.03        
852      1053     1052     0.03        
852      853      1054     0.03        
852      1054     1053     0.03        
853      854      1054     0.03        
854      1055     1054     0.03        
854      855      1056     0.03        
854      1056     1055     0.03        
855      856      1056     0.03        
856      1057     1056     0.03        
856      857      1058     0.03        
856      1058     1057     0.03        
857      858      1058     0.03        
858      1059     1058     0.03        
858      859      1060     0.03        
858      1060     1059     0.03        
859      860      1060     0.03        
860      1061     1060     0.03        
860      861      1062     0.03        
860      1062     1061     0.03        
861      862      1062     0.03        
862      1063     1062     0.03        
862      863      1064     0.03        
862      1064     1063     0.03        
863      864      1064     0.03        
864      1065     1064     0.03        
864      865      1066     0.03        
864      1066     1065     0.03        
865      866      1066     0.03        
866      1067     1066     0.03        
866      867      1068     0.03        
866      1068     1067     0.03        
867      868      1068     0.03        
868      1069     1068     0.03        
868      869      1070     0.03        
868      1070     1069     0.03        
869      870      1070     0.03        
870      1071     1070     0.03        
870      871      1072     0.03        
870      1072     1071     0.03        
871      872      1072     0.03        
872      1073     1072     0.03        
872      873      1074     0.03        
872      1074     1073     0.03        
873      874      1074     0.03        
874      1075     1074     0.03        
874      875      1076     0.03        
874      1076     1075     0.03        
875      876      1076     0.03        
876      1077     1076     0.03        
876      877      1078     0.03        
876      1078     1077     0.03        
877      878      1078     0.03        
878      1079     1078     0.03        
878      879      1080     0.03        
878      1080     1079     0.03        
879      880      1080     0.03        
880      1081     1080     0.03        
880      881      1082     0.03        
880      1082     1081     0.03        
881      882      1082     0.03        
882      1083     1082     0.03        
882      883      1084     0.03        
882      1084     1083     0.03        
883      884      1084     0.03        
884      1085     1084     0.03        
884      885      1086     0.03        
884      1086     1085     0.03        
885      886      1086     0.03        
886      1087     1086     0.03        
886      887      1088     0.03        
886      1088     1087     0.03        
887      888      1088     0.03        
888      1089     1088     0.03        
888      889      1090     0.03        
888      1090     1089     0.03        
889      890      1090     0.03        
890      1091     1090     0.03        
890      891      1092     0.03        
890      1092     1091     0.03        
891      892      1092     0.03        
892      1093     1092     0.03        
892      893      1094     0.03        
892      1094     1093     0.03        
893      894      1094     0.03        
894      1095     1094     0.03        
894      895      1096     0.03        
894      1096     1095     0.03        
895      896      1096     0.03        
896      1097     1096     0.03        
896      897      1098     0.03        
896      1098     1097     0.03        
897      898      1098     0.03        
898      1099     1098     0.03        
898      899      1100     0.03        
898      1100     1099     0.03        
899      900      1100     0.03        
900      1101     1100     0.03        
900      901      1102     0.03        
900      1102     1101     0.03        
901      902      1102     0.03        
902      1103     1102     0.03        
902      903      1104     0.03        
902      1104     1103     0.03        
903      904      1104     0.03        
904      1105     1104     0.03        
904      905      1106     0.03        
904      1106     1105     0.03        
905      906      1106     0.03        
906      1107     1106     0.03        
906      907      1108     0.03        
906      1108     1107     0.03        
907      908      1108     0.03        
908      1109     1108     0.03        
908      909      1110     0.03        
908      1110     1109     0.03        
909      910      1110     0.03        
910      1111     1110     0.03        
910      911      1112     0.03        
910      1112     1111     0.03        
911      912      1112     0.03        
912      1113     1112     0.03        
912      913      1114     0.03        
912      1114     1113     0.03        
913      914      1114     0.03        
914      1115     1114     0.03        
914      915      1116     0.03        
914      1116     1115     0.03        
915      916      1116     0.03        
916      1117     1116     0.03        
916      917      1118     0.03        
916      1118     1117     0.03        
917      918      1118     0.03        
918      1119     1118     0.03        
918      919      1120     0.03        
918      1120     1119     0.03        
919      920      1120     0.03        
920      1121     1120     0.03        
920      921      1122     0.03        
920      1122     1121     0.03        
921      922      1122     0.03        
922      1123     1122     0.03        
922      923      1124     0.03        
922      1124     1123     0.03        
923      924      1124     0.03        
924      1125     1124     0.03        
924      925      1126     0.03        
924      1126     1125     0.03        
925      926      1126     0.03        
926      1127     1126     0.03        
926      927      1128     0.03        
926      1128     1127     0.03        
927      928      1128     0.03        
928      1129     1128     0.03        
928      929      1130     0.03        
928      1130     1129     0.03        
929      930      1130     0.03        
930      1131     1130     0.03        
930      931      1132     0.03        
930      1132     1131     0.03        
931      932      1132     0.03        
932      1133     1132     0.03        
932      933      1134     0.03        
932      1134     1133     0.03        
933      934      1134     0.03        
934      1135     1134     0.03        
934      935      1136     0.03        
934      1136     1135     0.03        
935      936      1136     0.03        
936      1137     1136     0.03        
936      937      1138     0.03        
936      1138     1137     0.03        
937      938      1138     0.03        
938      1139     1138     0.03        
938      939      1140     0.03        
938      1140     1139     0.03        
939      940      1140     0.03        
940      1141     1140     0.03        
940      941      1142     0.03        
940      1142     1141     0.03        
941      942      1142     0.03        
942      1143     1142     0.03        
942      943      1144     0.03        
942      1144     1143     0.03        
943      944      1144     0.03        
944      1145     1144     0.03        
944      945      1146     0.03        
944      1146     1145     0.03        
945      946      1146     0.03        
946      1147     1146     0.03        
946      947      1148     0.03        
946      1148     1147     0.03        
947      948      1148     0.03        
948      1149     1148     0.03        
948      949      1150     0.03        
948      1150     1149     0.03        
949      950      1150     0.03        
950      1151     1150     0.03        
950      951      1152     0.03        
950      1152     1151     0.03        
951      952      1152     0.03        
952      1153     1152     0.03        
952      953      1154     0.03        
952      1154     1153     0.03        
953      954      1154     0.03        
954      1155     1154     0.03        
954      955      1156     0.03        
954      1156     1155     0.03        
955      956      1156     0.03        
956      1157     1156     0.03        
956      957      1158     0.03        
956      1158     1157     0.03        
957      958      1158     0.03        
958      1159     1158     0.03        
958      959      1160     0.03        
958      1160     1159     0.03        
959      960      1160     0.03        
960      1161     1160     0.03        
960      961      1162     0.03        
960      1162     1161     0.03        
961      962      1162     0.03        
962      1163     1162     0.03        
962      963      1164     0.03        
962      1164     1163     0.03        
963      964      1164     0.03        
964      1165     1164     0.03        
964      965      1166     0.03        
964      1166     1165     0.03        
965      966      1166     0.03        
966      1167     1166     0.03        
966      967      1168     0.03        
966      1168     1167     0.03        
967      968      1168     0.03        
968      1169     1168     0.03        
968      969      1170     0.03        
968      1170     1169     0.03        
969      970      1170     0.03        
970      1171     1170     0.03        
970      971      1172     0.03        
970      1172     1171     0.03        
971      972      1172     0.03        
972      1173     1172     0.03        
972      973      1174     0.03        
972      1174     1173     0.03        
973      974      1174     0.03        
974      1175     1174     0.03        
974      975      1176     0.03        
974      1176     1175     0.03        
975      976      1176     0.03        
976      1177     1176     0.03        
976      977      1178     0.03        
976      1178     1177     0.03        
977      978      1178     0.03        
978      1179     1178     0.03        
978      979      1180     0.03        
978      1180     1179     0.03        
979      980      1180     0.03        
980      1181     1180     0.03        
980      981      1182     0.03        
980      1182     1181     0.03        
981      982      1182     0.03        
982      1183     1182     0.03        
982      983      1184     0.03        
982      1184     1183     0.03        
983      984      1184     0.03        
984      1185     1184     0.03        
984      985      1186     0.03        
984      1186     1185     0.03        
985      986      1186     0.03        
986      1187     1186     0.03        
986      987      1188     0.03        
986      1188     1187     0.03        
987      988      1188     0.03        
988      1189     1188     0.03        
988      989      1190     0.03        
988      1190     1189     0.03        
989      990      1190     0.03        
990      1191     1190     0.03        
990      991      1192     0.03        
990      1192     1191     0.03        
991      992      1192     0.03        
992      1193     1192     0.03        
992      993      1194     0.03        
992      1194     1193     0.03        
993      994      1194     0.03        
994      1195     1194     0.03        
994      995      1196     0.03        
994      1196     1195     0.03        
995      996      1196     0.03        
996      1197     1196     0.03        
996      997      1198     0.03        
996      1198     1197     0.03        
997      998      1198     0.03        
998      1199     1198     0.03        
998      999      1200     0.03        
998      1200     1199     0.03        
999      1000     1200     0.03        
1000     1201     1200     0.03        
1000     1001     1202     0.03        
1000     1202     1201     0.03        
1001     1002     1202     0.03        
1002     1203     1202     0.03        
1002     1003     1204     0.03        
1002     1204     1203     0.03        
1003     1004     1204     0.03        
1004     1205     1204     0.03        
1005     1006     1206     0.03        
1006     1207     1206     0.03        
1006     1007     1208     0.03        
1006     1208     1207     0.03        
1007     1008     1208     0.03        
1008     1209     1208     0.03        
1008     1009     1210     0.03        
1008     1210     1209     0.03        
1009     1010     1210     0.03        
1010     1211     1210     0.03        
1010     1011     1212     0.03        
1010     1212     1211     0.03        
1011     1012     1212     0.03        
1012     1213     1212     0.03        
1012     1013     1214     0.03        
1012     1214     1213     0.03        
1013     1014     1214     0.03        
1014     1215     1214     0.03        
1014     1015     1216     0.03        
1014     1216     1215     0.03        
1015     1016     1216     0.03        
1016     1217     1216     0.03        
1016     1017     1218     0.03        
1016     1218     1217     0.03        
1017     1018     1218     0.03        
1018     1219     1218     0.03        
1018     1019     1220     0.03        
1018     1220     1219     0.03        
1019     1020     1220     0.03        
1020     1221     1220     0.03        
1020     1021     1222     0.03        
1020     1222     1221     0.03        
1021     1022     1222     0.03        
1022     1223     1222     0.03        
1022     1023     1224     0.03        
1022     1224     1223     0.03        
1023     1024     1224     0.03        
1024     1225     1224     0.03        
1024     1025     1226     0.03        
1024     1226     1225     0.03        
1025     1026     1226     0.03        
1026     1227     1226     0.03        
1026     1027     1228     0.03        
1026     1228     1227     0.03        
1027     1028     1228     0.03        
1028     1229     1228     0.03        
1028     1029     1230     0.03        
1028     1230     1229     0.03        
1029     1030     1230     0.03        
1030     1231     1230     0.03        
1030     1031     1232     0.03        
1030     1232     1231     0.03        
1031     1032     1232     0.03        
1032     1233     1232     0.03        
1032     1033     1234     0.03        
1032     1234     1233     0.03        
1033     1034     1234     0.03        
1034     1235     1234     0.03        
1034     1035     1236     0.03        
1034     1236     1235     0.03        
1035     1036     1236     0.03        
1036     1237     1236     0.03        
1036     1037     1238     0.03        
1036     1238     1237     0.03        
1037     1038     1238     0.03        
1038     1239     1238     0.03        
1038     1039     1240     0.03        
1038     1240     1239     0.03        
1039     1040     1240     0.03        
1040     1241     1240     0.03        
1040     1041     1242     0.03        
1040     1242     1241     0.03        
1041     1042     1242     0.03        
1042     1243     1242     0.03        
1042     1043     1244     0.03        
1042     1244     1243     0.03        
1043     1044     1244     0.03        
1044     1245     1244     0.03        
1044     1045     1246     0.03        
1044     1246     1245     0.03        
1045     1046     1246     0.03        
1046     1247     1246     0.03        
1046     1047     1248     0.03        
1046     1248     1247     0.03        
1047     1048     1248     0.03        
1048     1249     1248     0.03        
1048     1049     1250     0.03        
1048     1250     1249     0.03        
1049     1050     1250     0.03        
1050     1251     1250     0.03        
1050     1051     1252     0.03        
1050     1252     1251     0.03        
1051     1052     1252     0.03        
1052     1253     1252     0.03        
1052     1053     1254     0.03        
1052     1254     1253     0.03        
1053     1054     1254     0.03        
1054     1255     1254     0.03        
1054     1055     1256     0.03        
1054     1256     1255     0.03        
1055     1056     1256     0.03        
1056     1257     1256     0.03        
1056     1057     1258     0.03        
1056     1258     1257     0.03        
1057     1058     1258     0.03        
1058     1259     1258     0.03        
1058     1059     1260     0.03        
1058     1260     1259     0.03        
1059     1060     1260     0.03        
1060     1261     1260     0.03        
1060     1061     1262     0.03        
1060     1262     1261     0.03        
1061     1062     1262     0.03        
1062     1263     1262     0.03        
1062     1063     1264     0.03        
1062     1264     1263     0.03        
1063     1064     1264     0.03        
1064     1265     1264     0.03        
1064     1065     1266     0.03        
1064     1266     1265     0.03        
1065     1066     1266     0.03        
1066     1267     1266     0.03        
1066     1067     1268     0.03        
1066     1268     1267     0.03        
1067     1068     1268     0.03        
1068     1269     1268     0.03        
1068     1069     1270     0.03        
1068     1270     1269     0.03        
1069     1070     1270     0.03        
1070     1271     1270     0.03        
1070     1071     1272     0.03        
1070     1272     1271     0.03        
1071     1072     1272     0.03        
1072     1273     1272     0.03        
1072     1073     1274     0.03        
1072     1274     1273     0.03        
1073     1074     1274     0.03        
1074     1275     1274     0.03        
1074     1075     1276     0.03        
1074     1276     1275     0.03        
1075     1076     1276     0.03        
1076     1277     1276     0.03        
1076     1077     1278     0.03        
1076     1278     1277     0.03        
1077     1078     1278     0.03        
1078     1279     1278     0.03        
1078     1079     1280     0.03        
1078     1280     1279     0.03        
1079     1080     1280     0.03        
1080     1281     1280     0.03        
1080     1081     1282     0.03        
1080     1282     1281     0.03        
1081     1082     1282     0.03        
1082     1283     1282     0.03        
1082     1083     1284     0.03        
1082     1284     1283     0.03        
1083     1084     1284     0.03        
1084     1285     1284     0.03        
1084     1085     1286     0.03        
1084     1286     1285     0.03        
1085     1086     1286     0.03        
1086     1287     1286     0.03        
1086     1087     1288     0.03        
1086     1288     1287     0.03        
1087     1088     1288     0.03        
1088     1289     1288     0.03        
1088     1089     1290     0.03        
1088     1290     1289     0.03        
1089     1090     1290     0.03        
1090     1291     1290     0.03        
1090     1091     1292     0.03        
1090     1292     1291     0.03        
1091     1092     1292     0.03        
1092     1293     1292     0.03        
1092     1093     1294     0.03        
1092     1294     1293     0.03        
1093     1094     1294     0.03        
1094     1295     1294     0.03        
1094     1095     1296     0.03        
1094     1296     1295     0.03        
1095     1096     1296     0.03        
1096     1297     1296     0.03        
1096     1097     1298     0.03        
1096     1298     1297     0.03        
1097     1098     1298     0.03        
1098     1299     1298     0.03        
1098     1099     1300     0.03        
1098     1300     1299     0.03        
1099     1100     1300     0.03        
1100     1301     1300     0.03        
1100     1101     1302     0.03        
1100     1302     1301     0.03        
1101     1102     1302     0.03        
1102     1303     1302     0.03        
1102     1103     1304     0.03        
1102     1304     1303     0.03        
1103     1104     1304     0.03        
1104     1305     1304     0.03        
1104     1105     1306     0.03        
1104     1306     1305     0.03        
1105     1106     1306     0.03        
1106     1307     1306     0.03        
1106     1107     1308     0.03        
1106     1308     1307     0.03        
1107     1108     1308     0.03        
1108     1309     1308     0.03        
1108     1109     1310     0.03        
1108     1310     1309     0.03        
1109     1110     1310     0.03        
1110     1311     1310     0.03        
1110     1111     1312     0.03        
1110     1312     1311     0.03        
1111     1112     1312     0.03        
1112     1313     1312     0.03        
1112     1113     1314     0.03        
1112     1314     1313     0.03        
1113     1114     1314     0.03        
1114     1315     1314     0.03        
1114     1115     1316     0.03        
1114     1316     1315     0.03        
1115     1116     1316     0.03        
1116     1317     1316     0.03        
1116     1117     1318     0.03        
1116     1318     1317     0.03        
1117     1118     1318     0.03        
1118     1319     1318     0.03        
1118     1119     1320     0.03        
1118     1320     1319     0.03        
1119     1120     1320     0.03        
1120     1321     1320     0.03        
1120     1121     1322     0.03        
1120     1322     1321     0.03        
1121     1122     1322     0.03        
1122     1323     1322     0.03        
1122     1123     1324     0.03        
1122     1324     1323     0.03        
1123     1124     1324     0.03        
1124     1325     1324     0.03        
1124     1125     1326     0.03        
1124     1326     1325     0.03        
1125     1126     1326     0.03        
1126     1327     1326     0.03        
1126     1127     1328     0.03        
1126     1328     1327     0.03        
1127     1128     1328     0.03        
1128     1329     1328     0.03        
1128     1129     1330     0.03        
1128     1330     1329     0.03        
1129     1130     1330     0.03        
1130     1331     1330     0.03        
1130     1131     1332     0.03        
1130     1332     1331     0.03        
1131     1132     1332     0.03        
1132     1333     1332     0.03        
1132     1133     1334     0.03        
1132     1334     1333     0.03        
1133     1134     1334     0.03        
1134     1335     1334     0.03        
1134     1135     1336     0.03        
1134     1336     1335     0.03        
1135     1136     1336     0.03        
1136     1337     1336     0.03        
1136     1137     1338     0.03        
1136     1338     1337     0.03        
1137     1138     1338     0.03        
1138     1339     1338     0.03        
1138     1139     1340     0.03        
1138     1340     1339     0.03        
1139     1140     1340     0.03        
1140     1341     1340     0.03        
1140     1141     1342     0.03        
1140     1342     1341     0.03        
1141     1142     1342     0.03        
1142     1343     1342     0.03        
1142     1143     1344     0.03        
1142     1344     1343     0.03        
1143     1144     1344     0.03        
1144     1345     1344     0.03        
1144     1145     1346     0.03        
1144     1346     1345     0.03        
1145     1146     1346     0.03        
1146     1347     1346     0.03        
1146     1147     1348     0.03        
1146     1348     1347     0.03        
1147     1148     1348     0.03        
1148     1349     1348     0.03        
1148     1149     1350     0.03        
1148     1350     1349     0.03        
1149     1150     1350     0.03        
1150     1351     1350     0.03        
1150     1151     1352     0.03        
1150     1352     1351     0.03        
1151     1152     1352     0.03        
1152     1353     1352     0.03        
1152     1153     1354     0.03        
1152     1354     1353     0.03        
1153     1154     1354     0.03        
1154     1355     1354     0.03        
1154     1155     1356     0.03        
1154     1356     1355     0.03        
1155     1156     1356     0.03        
1156     1357     1356     0.03        
1156     1157     1358     0.03        
1156     1358     1357     0.03        
1157     1158     1358     0.03        
1158     1359     1358     0.03        
1158     1159     1360     0.03        
1158     1360     1359     0.03        
1159     1160     1360     0.03        
1160     1361     1360     0.03        
1160     1161     1362     0.03        
1160     1362     1361     0.03        
1161     1162     1362     0.03        
1162     1363     1362     0.03        
1162     1163     1364     0.03        
1162     1364     1363     0.03        
1163     1164     1364     0.03        
1164     1365     1364     0.03        
1164     1165     1366     0.03        
1164     1366     1365     0.03        
1165     1166     1366     0.03        
1166     1367     1366     0.03        
1166     1167     1368     0.03        
1166     1368     1367     0.03        
1167     1168     1368     0.03        
1168     1369     1368     0.03        
1168     1169     1370     0.03        
1168     1370     1369     0.03        
1169     1170     1370     0.03        
1170     1371     1370     0.03        
1170     1171     1372     0.03        
1170     1372     1371     0.03        
1171     1172     1372     0.03        
1172     1373     1372     0.03        
1172     1173     1374     0.03        
1172     1374     1373     0.03        
1173     1174     1374     0.03        
1174     1375     1374     0.03        
1174     1175     1376     0.03        
1174     1376     1375     0.03        
1175     1176     1376     0.03        
1176     1377     1376     0.03        
1176     1177     1378     0.03        
1176     1378     1377     0.03        
1177     1178     1378     0.03        
1178     1379     1378     0.03        
1178     1179     1380     0.03        
1178     1380     1379     0.03        
1179     1180     1380     0.03        
1180     1381     1380     0.03        
1180     1181     1382     0.03        
1180     1382     1381     0.03        
1181     1182     1382     0.03        
1182     1383     1382     0.03        
1182     1183     1384     0.03        
1182     1384     1383     0.03        
1183     1184     1384     0.03        
1184     1385     1384     0.03        
1184     1185     1386     0.03        
1184     1386     1385     0.03        
1185     1186     1386     0.03        
1186     1387     1386     0.03        
1186     1187     1388     0.03        
1186     1388     1387     0.03        
1187     1188     1388     0.03        
1188     1389     1388     0.03        
1188     1189     1390     0.03        
1188     1390     1389     0.03        
1189     1190     1390     0.03        
1190     1391     1390     0.03        
1190     1191     1392     0.03        
1190     1392     1391     0.03        
1191     1192     1392     0.03        
1192     1393     1392     0.03        
1192     1193     1394     0.03        
1192     1394     1393     0.03        
1193     1194     1394     0.03        
1194     1395     1394     0.03        
1194     1195     1396     0.03        
1194     1396     1395     0.03        
1195     1196     1396     0.03        
1196     1397     1396     0.03        
1196     1197     1398     0.03        
1196     1398     1397     0.03        
1197     1198     1398     0.03        
1198     1399     1398     0.03        
1198     1199     1400     0.03        
1198     1400     1399     0.03        
1199     1200     1400     0.03        
1200     1401     1400     0.03        
1200     1201     1402     0.03        
1200     1402     1401     0.03        
1201     1202     1402     0.03        
1202     1403     1402     0.03        
1202     1203     1404     0.03        
1202     1404     1403     0.03        
1203     1204     1404     0.03        
1204     1405     1404     0.03        
1204     1205     1406     0.03        
1204     1406     1405     0.03        
1206     1207     1408     0.03        
1206     1408     1407     0.03        
1207     1208     1408     0.03        
1208     1409     1408     0.03        
1208     1209     1410     0.03        
1208     1410     1409     0.03        
1209     1210     1410     0.03        
1210     1411     1410     0.03        
1210     1211     1412     0.03        
1210     1412     1411     0.03        
1211     1212     1412     0.03        
1212     1413     1412     0.03        
1212     1213     1414     0.03        
1212     1414     1413     0.03        
1213     1214     1414     0.03        
1214     1415     1414     0.03        
1214     1215     1416     0.03        
1214     1416     1415     0.03        
1215     1216     1416     0.03        
1216     1417     1416     0.03        
1216     1217     1418     0.03        
1216     1418     1417     0.03        
1217     1218     1418     0.03        
1218     1419     1418     0.03        
1218     1219     1420     0.03        
1218     1420     1419     0.03        
1219     1220     1420     0.03        
1220     1421     1420     0.03        
1220     1221     1422     0.03        
1220     1422     1421     0.03        
1221     1222     1422     0.03        
1222     1423     1422     0.03        
1222     1223     1424     0.03        
1222     1424     1423     0.03        
1223     1224     1424     0.03        
1224     1425     1424     0.03        
1224     1225     1426     0.03        
1224     1426     1425     0.03        
1225     1226     1426     0.03        
1226     1427     1426     0.03        
1226     1227     1428     0.03        
1226     1428     1427     0.03        
1227     1228     1428     0.03        
1228     1429     1428     0.03        
1228     1229     1430     0.03        
1228     1430     1429     0.03        
1229     1230     1430     0.03        
1230     1431     1430     0.03        
1230     1231     1432     0.03        
1230     1432     1431     0.03        
1231     1232     1432     0.03        
1232     1433     1432     0.03        
1232     1233     1434     0.03        
1232     1434     1433     0.03        
1233     1234     1434     0.03        
1234     1435     1434     0.03        
1234     1235     1436     0.03        
1234     1436     1435     0.03        
1235     1236     1436     0.03        
1236     1437     1436     0.03        
1236     1237     1438     0.03        
1236     1438     1437     0.03        
1237     1238     1438     0.03        
1238     1439     1438     0.03        
1238     1239     1440     0.03        
1238     1440     1439     0.03        
1239     1240     1440     0.03        
1240     1441     1440     0.03        
1240     1241     1442     0.03        
1240     1442     1441     0.03        
1241     1242     1442     0.03        
1242     1443     1442     0.03        
1242     1243     1444     0.03        
1242     1444     1443     0.03        
1243     1244     1444     0.03        
1244     1445     1444     0.03        
1244     1245     1446     0.03        
1244     1446     1445     0.03        
1245     1246     1446     0.03        
1246     1447     1446     0.03        
1246     1247     1448     0.03        
1246     1448     1447     0.03        
1247     1248     1448     0.03        
1248     1449     1448     0.03        
1248     1249     1450     0.03        
1248     1450     1449     0.03        
1249     1250     1450     0.03        
1250     1451     1450     0.03        
1250     1251     1452     0.03        
1250     1452     1451     0.03        
1251     1252     1452     0.03        
1252     1453     1452     0.03        
1252     1253     1454     0.03        
1252     1454     1453     0.03        
1253     1254     1454     0.03        
1254     1455     1454     0.03        
1254     1255     1456     0.03        
1254     1456     1455     0.03        
1255     1256     1456     0.03        
1256     1457     1456     0.03        
1256     1257     1458     0.03        
1256     1458     1457     0.03        
1257     1258     1458     0.03        
1258     1459     1458     0.03        
1258     1259     1460     0.03        
1258     1460     1459     0.03        
1259     1260     1460     0.03        
1260     1461     1460     0.03        
1260     1261     1462     0.03        
1260     1462     1461     0.03        
1261     1262     1462     0.03        
1262     1463     1462     0.03        
1262     1263     1464     0.03        
1262     1464     1463     0.03        
1263     1264     1464     0.03        
1264     1465     1464     0.03        
1264     1265     1466     0.03        
1264     1466     1465     0.03        
1265     1266     1466     0.03        
1266     1467     1466     0.03        
1266     1267     1468     0.03        
1266     1468     1467     0.03        
1267     1268     1468     0.03        
1268     1469     1468     0.03        
1268     1269     1470     0.03        
1268     1470     1469     0.03        
1269     1270     1470     0.03        
1270     1471     1470     0.03        
1270     1271     1472     0.03        
1270     1472     1471     0.03        
1271     1272     1472     0.03        
1272     1473     1472     0.03        
1272     1273     1474     0.03        
1272     1474     1473     0.03        
1273     1274     1474     0.03        
1274     1475     1474     0.03        
1274     1275     1476     0.03        
1274     1476     1475     0.03        
1275     1276     1476     0.03        
1276     1477     1476     0.03        
1276     1277     1478     0.03        
1276     1478     1477     0.03        
1277     1278     1478     0.03        
1278     1479     1478     0.03        
1278     1279     1480     0.03        
1278     1480     1479     0.03        
1279     1280     1480     0.03        
1280     1481     1480     0.03        
1280     1281     1482     0.03        
1280     1482     1481     0.03        
1281     1282     1482     0.03        
1282     1483     1482     0.03        
1282     1283     1484     0.03        
1282     1484     1483     0.03        
1283     1284     1484     0.03        
1284     1485     1484     0.03        
1284     1285     1486     0.03        
1284     1486     1485     0.03        
1285     1286     1486     0.03        
1286     1487     1486     0.03        
1286     1287     1488     0.03        
1286     1488     1487     0.03        
1287     1288     1488     0.03        
1288     1489     1488     0.03        
1288     1289     1490     0.03        
1288     1490     1489     0.03        
1289     1290     1490     0.03        
1290     1491     1490     0.03        
1290     1291     1492     0.03        
1290     1492     1491     0.03        
1291     1292     1492     0.03        
1292     1493     1492     0.03        
1292     1293     1494     0.03        
1292     1494     1493     0.03        
1293     1294     1494     0.03        
1294     1495     1494     0.03        
1294     1295     1496     0.03        
1294     1496     1495     0.03        
1295     1296     1496     0.03        
1296     1497     1496     0.03        
1296     1297     1498     0.03        
1296     1498     1497     0.03        
1297     1298     1498     0.03        
1298     1499     1498     0.03        
1298     1299     1500     0.03        
1298     1500     1499     0.03        
1299     1300     1500     0.03        
1300     1501     1500     0.03        
1300     1301     1502     0.03        
1300     1502     1501     0.03        
1301     1302     1502     0.03        
1302     1503     1502     0.03        
1302     1303     1504     0.03        
1302     1504     1503     0.03        
1303     1304     1504     0.03        
1304     1505     1504     0.03        
1304     1305     1506     0.03        
1304     1506     1505     0.03        
1305     1306     1506     0.03        
1306     1507     1506     0.03        
1306     1307     1508     0.03        
1306     1508     1507     0.03        
1307     1308     1508     0.03        
1308     1509     1508     0.03        
1308     1309     1510     0.03        
1308     1510     1509     0.03        
1309     1310     1510     0.03        
1310     1511     1510     0.03        
1310     1311     1512     0.03        
1310     1512     1511     0.03        
1311     1312     1512     0.03        
1312     1513     1512     0.03        
1312     1313     1514     0.03        
1312     1514     1513     0.03        
1313     1314     1514     0.03        
1314     1515     1514     0.03        
1314     1315     1516     0.03        
1314     1516     1515     0.03        
1315     1316     1516     0.03        
1316     1517     1516     0.03        
1316     1317     1518     0.03        
1316     1518     1517     0.03        
1317     1318     1518     0.03        
1318     1519     1518     0.03        
1318     1319     1520     0.03        
1318     1520     1519     0.03        
1319     1320     1520     0.03        
1320     1521     1520     0.03        
1320     1321     1522     0.03        
1320     1522     1521     0.03        
1321     1322     1522     0.03        
1322     1523     1522     0.03        
1322     1323     1524     0.03        
1322     1524     1523     0.03        
1323     1324     1524     0.03        
1324     1525     1524     0.03        
1324     1325     1526     0.03        
1324     1526     1525     0.03        
1325     1326     1526     0.03        
1326     1527     1526     0.03        
1326     1327     1528     0.03        
1326     1528     1527     0.03        
1327     1328     1528     0.03        
1328     1529     1528     0.03        
1328     1329     1530     0.03        
1328     1530     1529     0.03        
1329     1330     1530     0.03        
1330     1531     1530     0.03        
1330     1331     1532     0.03        
1330     1532     1531     0.03        
1331     1332     1532     0.03        
1332     1533     1532     0.03        
1332     1333     1534     0.03        
1332     1534     1533     0.03        
1333     1334     1534     0.03        
1334     1535     1534     0.03        
1334     1335     1536     0.03        
1334     1536     1535     0.03        
1335     1336     1536     0.03        
1336     1537     1536     0.03        
1336     1337     1538     0.03        
1336     1538     1537     0.03        
1337     1338     1538     0.03        
1338     1539     1538     0.03        
1338     1339     1540     0.03        
1338     1540     1539     0.03        
1339     1340     1540     0.03        
1340     1541     1540     0.03        
1340     1341     1542     0.03        
1340     1542     1541     0.03        
1341     1342     1542     0.03        
1342     1543     1542     0.03        
1342     1343     1544     0.03        
1342     1544     1543     0.03        
1343     1344     1544     0.03        
1344     1545     1544     0.03        
1344     1345     1546     0.03        
1344     1546     1545     0.03        
1345     1346     1546     0.03        
1346     1547     1546     0.03        
1346     1347     1548     0.03        
1346     1548     1547     0.03        
1347     1348     1548     0.03        
1348     1549     1548     0.03        
1348     1349     1550     0.03        
1348     1550     1549     0.03        
1349     1350     1550     0.03        
1350     1551     1550     0.03        
1350     1351     1552     0.03        
1350     1552     1551     0.03        
1351     1352     1552     0.03        
1352     1553     1552     0.03        
1352     1353     1554     0.03        
1352     1554     1553     0.03        
1353     1354     1554     0.03        
1354     1555     1554     0.03        
1354     1355     1556     0.03        
1354     1556     1555     0.03        
1355     1356     1556     0.03        
1356     1557     1556     0.03        
1356     1357     1558     0.03        
1356     1558     1557     0.03        
1357     1358     1558     0.03        
1358     1559     1558     0.03        
1358     1359     1560     0.03        
1358     1560     1559     0.03        
1359     1360     1560     0.03        
1360     1561     1560     0.03        
1360     1361     1562     0.03        
1360     1562     1561     0.03        
1361     1362     1562     0.03        
1362     1563     1562     0.03        
1362     1363     1564     0.03        
1362     1564     1563     0.03        
1363     1364     1564     0.03        
1364     1565     1564     0.03        
1364     1365     1566     0.03        
1364     1566     1565     0.03        
1365     1366     1566     0.03        
1366     1567     1566     0.03        
1366     1367     1568     0.03        
1366     1568     1567     0.03        
1367     1368     1568     0.03        
1368     1569     1568     0.03        
1368     1369     1570     0.03        
1368     1570     1569     0.03        
1369     1370     1570     0.03        
1370     1571     1570     0.03        
1370     1371     1572     0.03        
1370     1572     1571     0.03        
1371     1372     1572     0.03        
1372     1573     1572     0.03        
1372     1373     1574     0.03        
1372     1574     1573     0.03        
1373     1374     1574     0.03        
1374     1575     1574     0.03        
1374     1375     1576     0.03        
1374     1576     1575     0.03        
1375     1376     1576     0.03        
1376     1577     1576     0.03        
1376     1377     1578     0.03        
1376     1578     1577     0.03        
1377     1378     1578     0.03        
1378     1579     1578     0.03        
1378     1379     1580     0.03        
1378     1580     1579     0.03        
1379     1380     1580     0.03        
1380     1581     1580     0.03        
1380     1381     1582     0.03        
1380     1582     1581     0.03        
1381     1382     1582     0.03        
1382     1583     1582     0.03        
1382     1383     1584     0.03        
1382     1584     1583     0.03        
1383     1384     1584     0.03        
1384     1585     1584     0.03        
1384     1385     1586     0.03        
1384     1586     1585     0.03        
1385     1386     1586     0.03        
1386     1587     1586     0.03        
1386     1387     1588     0.03        
1386     1588     1587     0.03        
1387     1388     1588     0.03        
1388     1589     1588     0.03        
1388     1389     1590     0.03        
1388     1590     1589     0.03        
1389     1390     1590     0.03        
1390     1591     1590     0.03        
1390     1391     1592     0.03        
1390     1592     1591     0.03        
1391     1392     1592     0.03        
1392     1593     1592     0.03        
1392     1393     1594     0.03        
1392     1594     1593     0.03        
1393     1394     1594     0.03        
1394     1595     1594     0.03        
1394     1395     1596     0.03        
1394     1596     1595     0.03        
1395     1396     1596     0.03        
1396     1597     1596     0.03        
1396     1397     1598     0.03        
1396     1598     1597     0.03        
1397     1398     1598     0.03        
1398     1599     1598     0.03        
1398     1399     1600     0.03        
1398     1600     1599     0.03        
1399     1400     1600     0.03        
1400     1601     1600     0.03        
1400     1401     1602     0.03        
1400     1602     1601     0.03        
1401     1402     1602     0.03        
1402     1603     1602     0.03        
1402     1403     1604     0.03        
1402     1604     1603     0.03        
1403     1404     1604     0.03        
1404     1605     1604     0.03        
1404     1405     1606     0.03        
1404     1606     1605     0.03        
1405     1406     1606     0.03        
1406     1607     1606     0.03        
1407     1408     1608     0.03        
1408     1609     1608     0.03        
1408     1409     1610     0.03        
1408     1610     1609     0.03        
1409     1410     1610     0.03        
1410     1611     1610     0.03        
1410     1411     1612     0.03        
1410     1612     1611     0.03        
1411     1412     1612     0.03        
1412     1613     1612     0.03        
1412     1413     1614     0.03        
1412     1614     1613     0.03        
1413     1414     1614     0.03        
1414     1615     1614     0.03        
1414     1415     1616     0.03        
1414     1616     1615     0.03        
1415     1416     1616     0.03        
1416     1617     1616     0.03        
1416     1417     1618     0.03        
1416     1618     1617     0.03        
1417     1418     1618     0.03        
1418     1619     1618     0.03        
1418     1419     1620     0.03        
1418     1620     1619     0.03        
1419     1420     1620     0.03        
1420     1621     1620     0.03        
1420     1421     1622     0.03        
1420     1622     1621     0.03        
1421     1422     1622     0.03        
1422     1623     1622     0.03        
1422     1423     1624     0.03        
1422     1624     1623     0.03        
1423     1424     1624     0.03        
1424     1625     1624     0.03        
1424     1425     1626     0.03        
1424     1626     1625     0.03        
1425     1426     1626     0.03        
1426     1627     1626     0.03        
1426     1427     1628     0.03        
1426     1628     1627     0.03        
1427     1428     1628     0.03        
1428     1629     1628     0.03        
1428     1429     1630     0.03        
1428     1630     1629     0.03        
1429     1430     1630     0.03        
1430     1631     1630     0.03        
1430     1431     1632     0.03        
1430     1632     1631     0.03        
1431     1432     1632     0.03        
1432     1633     1632     0.03        
1432     1433     1634     0.03        
1432     1634     1633     0.03        
1433     1434     1634     0.03        
1434     1635     1634     0.03        
1434     1435     1636     0.03        
1434     1636     1635     0.03        
1435     1436     1636     0.03        
1436     1637     1636     0.03        
1436     1437     1638     0.03        
1436     1638     1637     0.03        
1437     1438     1638     0.03        
1438     1639     1638     0.03        
1438     1439     1640     0.03        
1438     1640     1639     0.03        
1439     1440     1640     0.03        
1440     1641     1640     0.03        
1440     1441     1642     0.03        
1440     1642     1641     0.03        
1441     1442     1642     0.03        
1442     1643     1642     0.03        
1442     1443     1644     0.03        
1442     1644     1643     0.03        
1443     1444     1644     0.03        
1444     1645     1644     0.03        
1444     1445     1646     0.03        
1444     1646     1645     0.03        
1445     1446     1646     0.03        
1446     1647     1646     0.03        
1446     1447     1648     0.03        
1446     1648     1647     0.03        
1447     1448     1648     0.03        
1448     1649     1648     0.03        
1448     1449     1650     0.03        
1448     1650     1649     0.03        
1449     1450     1650     0.03        
1450     1651     1650     0.03        
1450     1451     1652     0.03        
1450     1652     1651     0.03        
1451     1452     1652     0.03        
1452     1653     1652     0.03        
1452     1453     1654     0.03        
1452     1654     1653     0.03        
1453     1454     1654     0.03        
1454     1655     1654     0.03        
1454     1455     1656     0.03        
1454     1656     1655     0.03        
1455     1456     1656     0.03        
1456     1657     1656     0.03        
1456     1457     1658     0.03        
1456     1658     1657     0.03        
1457     1458     1658     0.03        
1458     1659     1658     0.03        
1458     1459     1660     0.03        
1458     1660     1659     0.03        
1459     1460     1660     0.03        
1460     1661     1660     0.03        
1460     1461     1662     0.03        
1460     1662     1661     0.03        
1461     1462     1662     0.03        
1462     1663     1662     0.03        
1462     1463     1664     0.03        
1462     1664     1663     0.03        
1463     1464     1664     0.03        
1464     1665     1664     0.03        
1464     1465     1666     0.03        
1464     1666     1665     0.03        
1465     1466     1666     0.03        
1466     1667     1666     0.03        
1466     1467     1668     0.03        
1466     1668     1667     0.03        
1467     1468     1668     0.03        
1468     1669     1668     0.03        
1468     1469     1670     0.03        
1468     1670     1669     0.03        
1469     1470     1670     0.03        
1470     1671     1670     0.03        
1470     1471     1672     0.03        
1470     1672     1671     0.03        
1471     1472     1672     0.03        
1472     1673     1672     0.03        
1472     1473     1674     0.03        
1472     1674     1673     0.03        
1473     1474     1674     0.03        
1474     1675     1674     0.03        
1474     1475     1676     0.03        
1474     1676     1675     0.03        
1475     1476     1676     0.03        
1476     1677     1676     0.03        
1476     1477     1678     0.03        
1476     1678     1677     0.03        
1477     1478     1678     0.03        
1478     1679     1678     0.03        
1478     1479     1680     0.03        
1478     1680     1679     0.03        
1479     1480     1680     0.03        
1480     1681     1680     0.03        
1480     1481     1682     0.03        
1480     1682     1681     0.03        
1481     1482     1682     0.03        
1482     1683     1682     0.03        
1482     1483     1684     0.03        
1482     1684     1683     0.03        
1483     1484     1684     0.03        
1484     1685     1684     0.03        
1484     1485     1686     0.03        
1484     1686     1685     0.03        
1485     1486     1686     0.03        
1486     1687     1686     0.03        
1486     1487     1688     0.03        
1486     1688     1687     0.03        
1487     1488     1688     0.03        
1488     1689     1688     0.03        
1488     1489     1690     0.03        
1488     1690     1689     0.03        
1489     1490     1690     0.03        
1490     1691     1690     0.03        
1490     1491     1692     0.03        
1490     1692     1691     0.03        
1491     1492     1692     0.03        
1492     1693     1692     0.03        
1492     1493     1694     0.03        
1492     1694     1693     0.03        
1493     1494     1694     0.03        
1494     1695     1694     0.03        
1494     1495     1696     0.03        
1494     1696     1695     0.03        
1495     1496     1696     0.03        
1496     1697     1696     0.03        
1496     1497     1698     0.03        
1496     1698     1697     0.03        
1497     1498     1698     0.03        
1498     1699     1698     0.03        
1498     1499     1700     0.03        
1498     1700     1699     0.03        
1499     1500     1700     0.03        
1500     1701     1700     0.03        
1500     1501     1702     0.03        
1500     1702     1701     0.03        
1501     1502     1702     0.03        
1502     1703     1702     0.03        
1502     1503     1704     0.03        
1502     1704     1703     0.03        
1503     1504     1704     0.03        
1504     1705     1704     0.03        
1504     1505     1706     0.03        
1504     1706     1705     0.03        
1505     1506     1706     0.03        
1506     1707     1706     0.03        
1506     1507     1708     0.03        
1506     1708     1707     0.03        
1507     1508     1708     0.03        
1508     1709     1708     0.03        
1508     1509     1710     0.03        
1508     1710     1709     0.03        
1509     1510     1710     0.03        
1510     1711     1710     0.03        
1510     1511     1712     0.03        
1510     1712     1711     0.03        
1511     1512     1712     0.03        
1512     1713     1712     0.03        
1512     1513     1714     0.03        
1512     1714     1713     0.03        
1513     1514     1714     0.03        
1514     1715     1714     0.03        
1514     1515     1716     0.03        
1514     1716     1715     0.03        
1515     1516     1716     0.03        
1516     1717     1716     0.03        
1516     1517     1718     0.03        
1516     1718     1717     0.03        
1517     1518     1718     0.03        
1518     1719     1718     0.03        
1518     1519     1720     0.03        
1518     1720     1719     0.03        
1519     1520     1720     0.03        
1520     1721     1720     0.03        
1520     1521     1722     0.03        
1520     1722     1721     0.03        
1521     1522     1722     0.03        
1522     1723     1722     0.03        
1522     1523     1724     0.03        
1522     1724     1723     0.03        
1523     1524     1724     0.03        
1524     1725     1724     0.03        
1524     1525     1726     0.03        
1524     1726     1725     0.03        
1525     1526     1726     0.03        
1526     1727     1726     0.03        
1526     1527     1728     0.03        
1526     1728     1727     0.03        
1527     1528     1728     0.03        
1528     1729     1728     0.03        
1528     1529     1730     0.03        
1528     1730     1729     0.03        
1529     1530     1730     0.03        
1530     1731     1730     0.03        
1530     1531     1732     0.03        
1530     1732     1731     0.03        
1531     1532     1732     0.03        
1532     1733     1732     0.03        
1532     1533     1734     0.03        
1532     1734     1733     0.03        
1533     1534     1734     0.03        
1534     1735     1734     0.03        
1534     1535     1736     0.03        
1534     1736     1735     0.03        
1535     1536     1736     0.03        
1536     1737     1736     0.03        
1536     1537     1738     0.03        
1536     1738     1737     0.03        
1537     1538     1738     0.03        
1538     1739     1738     0.03        
1538     1539     1740     0.03        
1538     1740     1739     0.03        
1539     1540     1740     0.03        
1540     1741     1740     0.03        
1540     1541     1742     0.03        
1540     1742     1741     0.03        
1541     1542     1742     0.03        
1542     1743     1742     0.03        
1542     1543     1744     0.03        
1542     1744     1743     0.03        
1543     1544     1744     0.03        
1544     1745     1744     0.03        
1544     1545     1746     0.03        
1544     1746     1745     0.03        
1545     1546     1746     0.03        
1546     1747     1746     0.03        
1546     1547     1748     0.03        
1546     1748     1747     0.03        
1547     1548     1748     0.03        
1548     1749     1748     0.03        
1548     1549     1750     0.03        
1548     1750     1749     0.03        
1549     1550     1750     0.03        
1550     1751     1750     0.03        
1550     1551     1752     0.03        
1550     1752     1751     0.03        
1551     1552     1752     0.03        
1552     1753     1752     0.03        
1552     1553     1754     0.03        
1552     1754     1753     0.03        
1553     1554     1754     0.03        
1554     1755     1754     0.03        
1554     1555     1756     0.03        
1554     1756     1755     0.03        
1555     1556     1756     0.03        
1556     1757     1756     0.03        
1556     1557     1758     0.03        
1556     1758     1757     0.03        
1557     1558     1758     0.03        
1558     1759     1758     0.03        
1558     1559     1760     0.03        
1558     1760     1759     0.03        
1559     1560     1760     0.03        
1560     1761     1760     0.03        
1560     1561     1762     0.03        
1560     1762     1761     0.03        
1561     1562     1762     0.03        
1562     1763     1762     0.03        
1562     1563     1764     0.03        
1562     1764     1763     0.03        
1563     1564     1764     0.03        
1564     1765     1764     0.03        
1564     1565     1766     0.03        
1564     1766     1765     0.03        
1565     1566     1766     0.03        
1566     1767     1766     0.03        
1566     1567     1768     0.03        
1566     1768     1767     0.03        
1567     1568     1768     0.03        
1568     1769     1768     0.03        
1568     1569     1770     0.03        
1568     1770     1769     0.03        
1569     1570     1770     0.03        
1570     1771     1770     0.03        
1570     1571     1772     0.03        
1570     1772     1771     0.03        
1571     1572     1772     0.03        
1572     1773     1772     0.03        
1572     1573     1774     0.03        
1572     1774     1773     0.03        
1573     1574     1774     0.03        
1574     1775     1774     0.03        
1574     1575     1776     0.03        
1574     1776     1775     0.03        
1575     1576     1776     0.03        
1576     1777     1776     0.03        
1576     1577     1778     0.03        
1576     1778     1777     0.03        
1577     1578     1778     0.03        
1578     1779     1778     0.03        
1578     1579     1780     0.03        
1578     1780     1779     0.03        
1579     1580     1780     0.03        
1580     1781     1780     0.03        
1580     1581     1782     0.03        
1580     1782     1781     0.03        
1581     1582     1782     0.03        
1582     1783     1782     0.03        
1582     1583     1784     0.03        
1582     1784     1783     0.03        
1583     1584     1784     0.03        
1584     1785     1784     0.03        
1584     1585     1786     0.03        
1584     1786     1785     0.03        
1585     1586     1786     0.03        
1586     1787     1786     0.03        
1586     1587     1788     0.03        
1586     1788     1787     0.03        
1587     1588     1788     0.03        
1588     1789     1788     0.03        
1588     1589     1790     0.03        
1588     1790     1789     0.03        
1589     1590     1790     0.03        
1590     1791     1790     0.03        
1590     1591     1792     0.03        
1590     1792     1791     0.03        
1591     1592     1792     0.03        
1592     1793     1792     0.03        
1592     1593     1794     0.03        
1592     1794     1793     0.03        
1593     1594     1794     0.03        
1594     1795     1794     0.03        
1594     1595     1796     0.03        
1594     1796     1795     0.03        
1595     1596     1796     0.03        
1596     1797     1796     0.03        
1596     1597     1798     0.03        
1596     1798     1797     0.03        
1597     1598     1798     0.03        
1598     1799     1798     0.03        
1598     1599     1800     0.03        
1598     1800     1799     0.03        
1599     1600     1800     0.03        
1600     1801     1800     0.03        
1600     1601     1802     0.03        
1600     1802     1801     0.03        
1601     1602     1802     0.03        
1602     1803     1802     0.03        
1602     1603     1804     0.03        
1602     1804     1803     0.03        
1603     1604     1804     0.03        
1604     1805     1804     0.03        
1604     1605     1806     0.03        
1604     1806     1805     0.03        
1605     1606     1806     0.03        
1606     1807     1806     0.03        
1606     1607     1808     0.03        
1606     1808     1807     0.03        
1608     1609     1810     0.03        
1608     1810     1809     0.03        
1609     1610     1810     0.03        
1610     1811     1810     0.03        
1610     1611     1812     0.03        
1610     1812     1811     0.03        
1611     1612     1812     0.03        
1612     1813     1812     0.03        
1612     1613     1814     0.03        
1612     1814     1813     0.03        
1613     1614     1814     0.03        
1614     1815     1814     0.03        
1614     1615     1816     0.03        
1614     1816     1815     0.03        
1615     1616     1816     0.03        
1616     1817     1816     0.03        
1616     1617     1818     0.03        
1616     1818     1817     0.03        
1617     1618     1818     0.03        
1618     1819     1818     0.03        
1618     1619     1820     0.03        
1618     1820     1819     0.03        
1619     1620     1820     0.03        
1620     1821     1820     0.03        
1620     1621     1822     0.03        
1620     1822     1821     0.03        
1621     1622     1822     0.03        
1622     1823     1822     0.03        
1622     1623     1824     0.03        
1622     1824     1823     0.03        
1623     1624     1824     0.03        
1624     1825     1824     0.03        
1624     1625     1826     0.03        
1624     1826     1825     0.03        
1625     1626     1826     0.03        
1626     1827     1826     0.03        
1626     1627     1828     0.03        
1626     1828     1827     0.03        
1627     1628     1828     0.03        
1628     1829     1828     0.03        
1628     1629     1830     0.03        
1628     1830     1829     0.03        
1629     1630     1830     0.03        
1630     1831     1830     0.03        
1630     1631     1832     0.03        
1630     1832     1831     0.03        
1631     1632     1832     0.03        
1632     1833     1832     0.03        
1632     1633     1834     0.03        
1632     1834     1833     0.03        
1633     1634     1834     0.03        
1634     1835     1834     0.03        
1634     1635     1836     0.03        
1634     1836     1835     0.03        
1635     1636     1836     0.03        
1636     1837     1836     0.03        
1636     1637     1838     0.03        
1636     1838     1837     0.03        
1637     1638     1838     0.03        
1638     1839     1838     0.03        
1638     1639     1840     0.03        
1638     1840     1839     0.03        
1639     1640     1840     0.03        
1640     1841     1840     0.03        
1640     1641     1842     0.03        
1640     1842     1841     0.03        
1641     1642     1842     0.03        
1642     1843     1842     0.03        
1642     1643     1844     0.03        
1642     1844     1843     0.03        
1643     1644     1844     0.03        
1644     1845     1844     0.03        
1644     1645     1846     0.03        
1644     1846     1845     0.03        
1645     1646     1846     0.03        
1646     1847     1846     0.03        
1646     1647     1848     0.03        
1646     1848     1847     0.03        
1647     1648     1848     0.03        
1648     1849     1848     0.03        
1648     1649     1850     0.03        
1648     1850     1849     0.03        
1649     1650     1850     0.03        
1650     1851     1850     0.03        
1650     1651     1852     0.03        
1650     1852     1851     0.03        
1651     1652     1852     0.03        
1652     1853     1852     0.03        
1652     1653     1854     0.03        
1652     1854     1853     0.03        
1653     1654     1854     0.03        
1654     1855     1854     0.03        
1654     1655     1856     0.03        
1654     1856     1855     0.03        
1655     1656     1856     0.03        
1656     1857     1856     0.03        
1656     1657     1858     0.03        
1656     1858     1857     0.03        
1657     1658     1858     0.03        
1658     1859     1858     0.03        
1658     1659     1860     0.03        
1658     1860     1859     0.03        
1659     1660     1860     0.03        
1660     1861     1860     0.03        
1660     1661     1862     0.03        
1660     1862     1861     0.03        
1661     1662     1862     0.03        
1662     1863     1862     0.03        
1662     1663     1864     0.03        
1662     1864     1863     0.03        
1663     1664     1864     0.03        
1664     1865     1864     0.03        
1664     1665     1866     0.03        
1664     1866     1865     0.03        
1665     1666     1866     0.03        
1666     1867     1866     0.03        
1666     1667     1868     0.03        
1666     1868     1867     0.03        
1667     1668     1868     0.03        
1668     1869     1868     0.03        
1668     1669     1870     0.03        
1668     1870     1869     0.03        
1669     1670     1870     0.03        
1670     1871     1870     0.03        
1670     1671     1872     0.03        
1670     1872     1871     0.03        
1671     1672     1872     0.03        
1672     1873     1872     0.03        
1672     1673     1874     0.03        
1672     1874     1873     0.03        
1673     1674     1874     0.03        
1674     1875     1874     0.03        
1674     1675     1876     0.03        
1674     1876     1875     0.03        
1675     1676     1876     0.03        
1676     1877     1876     0.03        
1676     1677     1878     0.03        
1676     1878     1877     0.03        
1677     1678     1878     0.03        
1678     1879     1878     0.03        
1678     1679     1880     0.03        
1678     1880     1879     0.03        
1679     1680     1880     0.03        
1680     1881     1880     0.03        
1680     1681     1882     0.03        
1680     1882     1881     0.03        
1681     1682     1882     0.03        
1682     1883     1882     0.03        
1682     1683     1884     0.03        
1682     1884     1883     0.03        
1683     1684     1884     0.03        
1684     1885     1884     0.03        
1684     1685     1886     0.03        
1684     1886     1885     0.03        
1685     1686     1886     0.03        
1686     1887     1886     0.03        
1686     1687     1888     0.03        
1686     1888     1887     0.03        
1687     1688     1888     0.03        
1688     1889     1888     0.03        
1688     1689     1890     0.03        
1688     1890     1889     0.03        
1689     1690     1890     0.03        
1690     1891     1890     0.03        
1690     1691     1892     0.03        
1690     1892     1891     0.03        
1691     1692     1892     0.03        
1692     1893     1892     0.03        
1692     1693     1894     0.03        
1692     1894     1893     0.03        
1693     1694     1894     0.03        
1694     1895     1894     0.03        
1694     1695     1896     0.03        
1694     1896     1895     0.03        
1695     1696     1896     0.03        
1696     1897     1896     0.03        
1696     1697     1898     0.03        
1696     1898     1897     0.03        
1697     1698     1898     0.03        
1698     1899     1898     0.03        
1698     1699     1900     0.03        
1698     1900     1899     0.03        
1699     1700     1900     0.03        
1700     1901     1900     0.03        
1700     1701     1902     0.03        
1700     1902     1901     0.03        
1701     1702     1902     0.03        
1702     1903     1902     0.03        
1702     1703     1904     0.03        
1702     1904     1903     0.03        
1703     1704     1904     0.03        
1704     1905     1904     0.03        
1704     1705     1906     0.03        
1704     1906     1905     0.03        
1705     1706     1906     0.03        
1706     1907     1906     0.03        
1706     1707     1908     0.03        
1706     1908     1907     0.03        
1707     1708     1908     0.03        
1708     1909     1908     0.03        
1708     1709     1910     0.03        
1708     1910     1909     0.03        
1709     1710     1910     0.03        
1710     1911     1910     0.03        
1710     1711     1912     0.03        
1710     1912     1911     0.03        
1711     1712     1912     0.03        
1712     1913     1912     0.03        
1712     1713     1914     0.03        
1712     1914     1913     0.03        
1713     1714     1914     0.03        
1714     1915     1914     0.03        
1714     1715     1916     0.03        
1714     1916     1915     0.03        
1715     1716     1916     0.03        
1716     1917     1916     0.03        
1716     1717     1918     0.03        
1716     1918     1917     0.03        
1717     1718     1918     0.03        
1718     1919     1918     0.03        
1718     1719     1920     0.03        
1718     1920     1919     0.03        
1719     1720     1920     0.03        
1720     1921     1920     0.03        
1720     1721     1922     0.03        
1720     1922     1921     0.03        
1721     1722     1922     0.03        
1722     1923     1922     0.03        
1722     1723     1924     0.03        
1722     1924     1923     0.03        
1723     1724     1924     0.03        
1724     1925     1924     0.03        
1724     1725     1926     0.03        
1724     1926     1925     0.03        
1725     1726     1926     0.03        
1726     1927     1926     0.03        
1726     1727     1928     0.03        
1726     1928     1927     0.03        
1727     1728     1928     0.03        
1728     1929     1928     0.03        
1728     1729     1930     0.03        
1728     1930     1929     0.03        
1729     1730     1930     0.03        
1730     1931     1930     0.03        
1730     1731     1932     0.03        
1730     1932     1931     0.03        
1731     1732     1932     0.03        
1732     1933     1932     0.03        
1732     1733     1934     0.03        
1732     1934     1933     0.03        
1733     1734     1934     0.03        
1734     1935     1934     0.03        
1734     1735     1936     0.03        
1734     1936     1935     0.03        
1735     1736     1936     0.03        
1736     1937     1936     0.03        
1736     1737     1938     0.03        
1736     1938     1937     0.03        
1737     1738     1938     0.03        
1738     1939     1938     0.03        
1738     1739     1940     0.03        
1738     1940     1939     0.03        
1739     1740     1940     0.03        
1740     1941     1940     0.03        
1740     1741     1942     0.03        
1740     1942     1941     0.03        
1741     1742     1942     0.03        
1742     1943     1942     0.03        
1742     1743     1944     0.03        
1742     1944     1943     0.03        
1743     1744     1944     0.03        
1744     1945     1944     0.03        
1744     1745     1946     0.03        
1744     1946     1945     0.03        
1745     1746     1946     0.03        
1746     1947     1946     0.03        
1746     1747     1948     0.03        
1746     1948     1947     0.03        
1747     1748     1948     0.03        
1748     1949     1948     0.03        
1748     1749     1950     0.03        
1748     1950     1949     0.03        
1749     1750     1950     0.03        
1750     1951     1950     0.03        
1750     1751     1952     0.03        
1750     1952     1951     0.03        
1751     1752     1952     0.03        
1752     1953     1952     0.03        
1752     1753     1954     0.03        
1752     1954     1953     0.03        
1753     1754     1954     0.03        
1754     1955     1954     0.03        
1754     1755     1956     0.03        
1754     1956     1955     0.03        
1755     1756     1956     0.03        
1756     1957     1956     0.03        
1756     1757     1958     0.03        
1756     1958     1957     0.03        
1757     1758     1958     0.03        
1758     1959     1958     0.03        
1758     1759     1960     0.03        
1758     1960     1959     0.03        
1759     1760     1960     0.03        
1760     1961     1960     0.03        
1760     1761     1962     0.03        
1760     1962     1961     0.03        
1761     1762     1962     0.03        
1762     1963     1962     0.03        
1762     1763     1964     0.03        
1762     1964     1963     0.03        
1763     1764     1964     0.03        
1764     1965     1964     0.03        
1764     1765     1966     0.03        
1764     1966     1965     0.03        
1765     1766     1966     0.03        
1766     1967     1966     0.03        
1766     1767     1968     0.03        
1766     1968     1967     0.03        
1767     1768     1968     0.03        
1768     1969     1968     0.03        
1768     1769     1970     0.03        
1768     1970     1969     0.03        
1769     1770     1970     0.03        
1770     1971     1970     0.03        
1770     1771     1972     0.03        
1770     1972     1971     0.03        
1771     1772     1972     0.03        
1772     1973     1972     0.03        
1772     1773     1974     0.03        
1772     1974     1973     0.03        
1773     1774     1974     0.03        
1774     1975     1974     0.03        
1774     1775     1976     0.03        
1774     1976     1975     0.03        
1775     1776     1976     0.03        
1776     1977     1976     0.03        
1776     1777     1978     0.03        
1776     1978     1977     0.03        
1777     1778     1978     0.03        
1778     1979     1978     0.03        
1778     1779     1980     0.03        
1778     1980     1979     0.03        
1779     1780     1980     0.03        
1780     1981     1980     0.03        
1780     1781     1982     0.03        
1780     1982     1981     0.03        
1781     1782     1982     0.03        
1782     1983     1982     0.03        
1782     1783     1984     0.03        
1782     1984     1983     0.03        
1783     1784     1984     0.03        
1784     1985     1984     0.03        
1784     1785     1986     0.03        
1784     1986     1985     0.03        
1785     1786     1986     0.03        
1786     1987     1986     0.03        
1786     1787     1988     0.03        
1786     1988     1987     0.03        
1787     1788     1988     0.03        
1788     1989     1988     0.03        
1788     1789     1990     0.03        
1788     1990     1989     0.03        
1789     1790     1990     0.03        
1790     1991     1990     0.03        
1790     1791     1992     0.03        
1790     1992     1991     0.03        
1791     1792     1992     0.03        
1792     1993     1992     0.03        
1792     1793     1994     0.03        
1792     1994     1993     0.03        
1793     1794     1994     0.03        
1794     1995     1994     0.03        
1794     1795     1996     0.03        
1794     1996     1995     0.03        
1795     1796     1996     0.03        
1796     1997     1996     0.03        
1796     1797     1998     0.03        
1796     1998     1997     0.03        
1797     1798     1998     0.03        
1798     1999     1998     0.03        
1798     1799     2000     0.03        
1798     2000     1999     0.03        
1799     1800     2000     0.03        
1800     2001     2000     0.03        
1800     1801     2002     0.03        
1800     2002     2001     0.03        
1801     1802     2002     0.03        
1802     2003     2002     0.03        
1802     1803     2004     0.03        
1802     2004     2003     0.03        
1803     1804     2004     0.03        
1804     2005     2004     0.03        
1804     1805     2006     0.03        
1804     2006     2005     0.03        
1805     1806     2006     0.03        
1806     2007     2006     0.03        
1806     1807     2008     0.03        
1806     2008     2007     0.03        
1807     1808     2008     0.03        
1808     2009     2008     0.03        
1809     1810     2010     0.03        
1810     2011     2010     0.03        
1810     1811     2012     0.03        
1810     2012     2011     0.03        
1811     1812     2012     0.03        
1812     2013     2012     0.03        
1812     1813     2014     0.03        
1812     2014     2013     0.03        
1813     1814     2014     0.03        
1814     2015     2014     0.03        
1814     1815     2016     0.03        
1814     2016     2015     0.03        
1815     1816     2016     0.03        
1816     2017     2016     0.03        
1816     1817     2018     0.03        
1816     2018     2017     0.03        
1817     1818     2018     0.03        
1818     2019     2018     0.03        
1818     1819     2020     0.03        
1818     2020     2019     0.03        
1819     1820     2020     0.03        
1820     2021     2020     0.03        
1820     1821     2022     0.03        
1820     2022     2021     0.03        
1821     1822     2022     0.03        
1822     2023     2022     0.03        
1822     1823     2024     0.03        
1822     2024     2023     0.03        
1823     1824     2024     0.03        
1824     2025     2024     0.03        
1824     1825     2026     0.03        
1824     2026     2025     0.03        
1825     1826     2026     0.03        
1826     2027     2026     0.03        
1826     1827     2028     0.03        
1826     2028     2027     0.03        
1827     1828     2028     0.03        
1828     2029     2028     0.03        
1828     1829     2030     0.03        
1828     2030     2029     0.03        
1829     1830     2030     0.03        
1830     2031     2030     0.03        
1830     1831     2032     0.03        
1830     2032     2031     0.03        
1831     1832     2032     0.03        
1832     2033     2032     0.03        
1832     1833     2034     0.03        
1832     2034     2033     0.03        
1833     1834     2034     0.03        
1834     2035     2034     0.03        
1834     1835     2036     0.03        
1834     2036     2035     0.03        
1835     1836     2036     0.03        
1836     2037     2036     0.03        
1836     1837     2038     0.03        
1836     2038     2037     0.03        
1837     1838     2038     0.03        
1838     2039     2038     0.03        
1838     1839     2040     0.03        
1838     2040     2039     0.03        
1839     1840     2040     0.03        
1840     2041     2040     0.03        
1840     1841     2042     0.03        
1840     2042     2041     0.03        
1841     1842     2042     0.03        
1842     2043     2042     0.03        
1842     1843     2044     0.03        
1842     2044     2043     0.03        
1843     1844     2044     0.03        
1844     2045     2044     0.03        
1844     1845     2046     0.03        
1844     2046     2045     0.03        
1845     1846     2046     0.03        
1846     2047     2046     0.03        
1846     1847     2048     0.03        
1846     2048     2047     0.03        
1847     1848     2048     0.03        
1848     2049     2048     0.03        
1848     1849     2050     0.03        
1848     2050     2049     0.03        
1849     1850     2050     0.03        
1850     2051     2050     0.03        
1850     1851     2052     0.03        
1850     2052     2051     0.03        
1851     1852     2052     0.03        
1852     2053     2052     0.03        
1852     1853     2054     0.03        
1852     2054     2053     0.03        
1853     1854     2054     0.03        
1854     2055     2054     0.03        
1854     1855     2056     0.03        
1854     2056     2055     0.03        
1855     1856     2056     0.03        
1856     2057     2056     0.03        
1856     1857     2058     0.03        
1856     2058     2057     0.03        
1857     1858     2058     0.03        
1858     2059     2058     0.03        
1858     1859     2060     0.03        
1858     2060     2059     0.03        
1859     1860     2060     0.03        
1860     2061     2060     0.03        
1860     1861     2062     0.03        
1860     2062     2061     0.03        
1861     1862     2062     0.03        
1862     2063     2062     0.03        
1862     1863     2064     0.03        
1862     2064     2063     0.03        
1863     1864     2064     0.03        
1864     2065     2064     0.03        
1864     1865     2066     0.03        
1864     2066     2065     0.03        
1865     1866     2066     0.03        
1866     2067     2066     0.03        
1866     1867     2068     0.03        
1866     2068     2067     0.03        
1867     1868     2068     0.03        
1868     2069     2068     0.03        
1868     1869     2070     0.03        
1868     2070     2069     0.03        
1869     1870     2070     0.03        
1870     2071     2070     0.03        
1870     1871     2072     0.03        
1870     2072     2071     0.03        
1871     1872     2072     0.03        
1872     2073     2072     0.03        
1872     1873     2074     0.03        
1872     2074     2073     0.03        
1873     1874     2074     0.03        
1874     2075     2074     0.03        
1874     1875     2076     0.03        
1874     2076     2075     0.03        
1875     1876     2076     0.03        
1876     2077     2076     0.03        
1876     1877     2078     0.03        
1876     2078     2077     0.03        
1877     1878     2078     0.03        
1878     2079     2078     0.03        
1878     1879     2080     0.03        
1878     2080     2079     0.03        
1879     1880     2080     0.03        
1880     2081     2080     0.03        
1880     1881     2082     0.03        
1880     2082     2081     0.03        
1881     1882     2082     0.03        
1882     2083     2082     0.03        
1882     1883     2084     0.03        
1882     2084     2083     0.03        
1883     1884     2084     0.03        
1884     2085     2084     0.03        
1884     1885     2086     0.03        
1884     2086     2085     0.03        
1885     1886     2086     0.03        
1886     2087     2086     0.03        
1886     1887     2088     0.03        
1886     2088     2087     0.03        
1887     1888     2088     0.03        
1888     2089     2088     0.03        
1888     1889     2090     0.03        
1888     2090     2089     0.03        
1889     1890     2090     0.03        
1890     2091     2090     0.03        
1890     1891     2092     0.03        
1890     2092     2091     0.03        
1891     1892     2092     0.03        
1892     2093     2092     0.03        
1892     1893     2094     0.03        
1892     2094     2093     0.03        
1893     1894     2094     0.03        
1894     2095     2094     0.03        
1894     1895     2096     0.03        
1894     2096     2095     0.03        
1895     1896     2096     0.03        
1896     2097     2096     0.03        
1896     1897     2098     0.03        
1896     2098     2097     0.03        
1897     1898     2098     0.03        
1898     2099     2098     0.03        
1898     1899     2100     0.03        
1898     2100     2099     0.03        
1899     1900     2100     0.03        
1900     2101     2100     0.03        
1900     1901     2102     0.03        
1900     2102     2101     0.03        
1901     1902     2102     0.03        
1902     2103     2102     0.03        
1902     1903     2104     0.03        
1902     2104     2103     0.03        
1903     1904     2104     0.03        
1904     2105     2104     0.03        
1904     1905     2106     0.03        
1904     2106     2105     0.03        
1905     1906     2106     0.03        
1906     2107     2106     0.03        
1906     1907     2108     0.03        
1906     2108     2107     0.03        
1907     1908     2108     0.03        
1908     2109     2108     0.03        
1908     1909     2110     0.03        
1908     2110     2109     0.03        
1909     1910     2110     0.03        
1910     2111     2110     0.03        
1910     1911     2112     0.03        
1910     2112     2111     0.03        
1911     1912     2112     0.03        
1912     2113     2112     0.03        
1912     1913     2114     0.03        
1912     2114     2113     0.03        
1913     1914     2114     0.03        
1914     2115     2114     0.03        
1914     1915     2116     0.03        
1914     2116     2115     0.03        
1915     1916     2116     0.03        
1916     2117     2116     0.03        
1916     1917     2118     0.03        
1916     2118     2117     0.03        
1917     1918     2118     0.03        
1918     2119     2118     0.03        
1918     1919     2120     0.03        
1918     2120     2119     0.03        
1919     1920     2120     0.03        
1920     2121     2120     0.03        
1920     1921     2122     0.03        
1920     2122     2121     0.03        
1921     1922     2122     0.03        
1922     2123     2122     0.03        
1922     1923     2124     0.03        
1922     2124     2123     0.03        
1923     1924     2124     0.03        
1924     2125     2124     0.03        
1924     1925     2126     0.03        
1924     2126     2125     0.03        
1925     1926     2126     0.03        
1926     2127     2126     0.03        
1926     1927     2128     0.03        
1926     2128     2127     0.03        
1927     1928     2128     0.03        
1928     2129     2128     0.03        
1928     1929     2130     0.03        
1928     2130     2129     0.03        
1929     1930     2130     0.03        
1930     2131     2130     0.03        
1930     1931     2132     0.03        
1930     2132     2131     0.03        
1931     1932     2132     0.03        
1932     2133     2132     0.03        
1932     1933     2134     0.03        
1932     2134     2133     0.03        
1933     1934     2134     0.03        
1934     2135     2134     0.03        
1934     1935     2136     0.03        
1934     2136     2135     0.03        
1935     1936     2136     0.03        
1936     2137     2136     0.03        
1936     1937     2138     0.03        
1936     2138     2137     0.03        
1937     1938     2138     0.03        
1938     2139     2138     0.03        
1938     1939     2140     0.03        
1938     2140     2139     0.03        
1939     1940     2140     0.03        
1940     2141     2140     0.03        
1940     1941     2142     0.03        
1940     2142     2141     0.03        
1941     1942     2142     0.03        
1942     2143     2142     0.03        
1942     1943     2144     0.03        
1942     2144     2143     0.03        
1943     1944     2144     0.03        
1944     2145     2144     0.03        
1944     1945     2146     0.03        
1944     2146     2145     0.03        
1945     1946     2146     0.03        
1946     2147     2146     0.03        
1946     1947     2148     0.03        
1946     2148     2147     0.03        
1947     1948     2148     0.03        
1948     2149     2148     0.03        
1948     1949     2150     0.03        
1948     2150     2149     0.03        
1949     1950     2150     0.03        
1950     2151     2150     0.03        
1950     1951     2152     0.03        
1950     2152     2151     0.03        
1951     1952     2152     0.03        
1952     2153     2152     0.03        
1952     1953     2154     0.03        
1952     2154     2153     0.03        
1953     1954     2154     0.03        
1954     2155     2154     0.03        
1954     1955     2156     0.03        
1954     2156     2155     0.03        
1955     1956     2156     0.03        
1956     2157     2156     0.03        
1956     1957     2158     0.03        
1956     2158     2157     0.03        
1957     1958     2158     0.03        
1958     2159     2158     0.03        
1958     1959     2160     0.03        
1958     2160     2159     0.03        
1959     1960     2160     0.03        
1960     2161     2160     0.03        
1960     1961     2162     0.03        
1960     2162     2161     0.03        
1961     1962     2162     0.03        
1962     2163     2162     0.03        
1962     1963     2164     0.03        
1962     2164     2163     0.03        
1963     1964     2164     0.03        
1964     2165     2164     0.03        
1964     1965     2166     0.03        
1964     2166     2165     0.03        
1965     1966     2166     0.03        
1966     2167     2166     0.03        
1966     1967     2168     0.03        
1966     2168     2167     0.03        
1967     1968     2168     0.03        
1968     2169     2168     0.03        
1968     1969     2170     0.03        
1968     2170     2169     0.03        
1969     1970     2170     0.03        
1970     2171     2170     0.03        
1970     1971     2172     0.03        
1970     2172     2171     0.03        
1971     1972     2172     0.03        
1972     2173     2172     0.03        
1972     1973     2174     0.03        
1972     2174     2173     0.03        
1973     1974     2174     0.03        
1974     2175     2174     0.03        
1974     1975     2176     0.03        
1974     2176     2175     0.03        
1975     1976     2176     0.03        
1976     2177     2176     0.03        
1976     1977     2178     0.03        
1976     2178     2177     0.03        
1977     1978     2178     0.03        
1978     2179     2178     0.03        
1978     1979     2180     0.03        
1978     2180     2179     0.03        
1979     1980     2180     0.03        
1980     2181     2180     0.03        
1980     1981     2182     0.03        
1980     2182     2181     0.03        
1981     1982     2182     0.03        
1982     2183     2182     0.03        
1982     1983     2184     0.03        
1982     2184     2183     0.03        
1983     1984     2184     0.03        
1984     2185     2184     0.03        
1984     1985     2186     0.03        
1984     2186     2185     0.03        
1985     1986     2186     0.03        
1986     2187     2186     0.03        
1986     1987     2188     0.03        
1986     2188     2187     0.03        
1987     1988     2188     0.03        
1988     2189     2188     0.03        
1988     1989     2190     0.03        
1988     2190     2189     0.03        
1989     1990     2190     0.03        
1990     2191     2190     0.03        
1990     1991     2192     0.03        
1990     2192     2191     0.03        
1991     1992     2192     0.03        
1992     2193     2192     0.03        
1992     1993     2194     0.03        
1992     2194     2193     0.03        
1993     1994     2194     0.03        
1994     2195     2194     0.03        
1994     1995     2196     0.03        
1994     2196     2195     0.03        
1995     1996     2196     0.03        
1996     2197     2196     0.03        
1996     1997     2198     0.03        
1996     2198     2197     0.03        
1997     1998     2198     0.03        
1998     2199     2198     0.03        
1998     1999     2200     0.03        
1998     2200     2199     0.03        
1999     2000     2200     0.03        
2000     2201     2200     0.03        
2000     2001     2202     0.03        
2000     2202     2201     0.03        
2001     2002     2202     0.03        
2002     2203     2202     0.03        
2002     2003     2204     0.03        
2002     2204     2203     0.03        
2003     2004     2204     0.03        
2004     2205     2204     0.03        
2004     2005     2206     0.03        
2004     2206     2205     0.03        
2005     2006     2206     0.03        
2006     2207     2206     0.03        
2006     2007     2208     0.03        
2006     2208     2207     0.03        
2007     2008     2208     0.03        
2008     2209     2208     0.03        
2008     2009     2210     0.03        
2008     2210     2209     0.03        
2010     2011     2212     0.03        
2010     2212     2211     0.03        
2011     2012     2212     0.03        
2012     2213     2212     0.03        
2012     2013     2214     0.03        
2012     2214     2213     0.03        
2013     2014     2214     0.03        
2014     2215     2214     0.03        
2014     2015     2216     0.03        
2014     2216     2215     0.03        
2015     2016     2216     0.03        
2016     2217     2216     0.03        
2016     2017     2218     0.03        
2016     2218     2217     0.03        
2017     2018     2218     0.03        
2018     2219     2218     0.03        
2018     2019     2220     0.03        
2018     2220     2219     0.03        
2019     2020     2220     0.03        
2020     2221     2220     0.03        
2020     2021     2222     0.03        
2020     2222     2221     0.03        
2021     2022     2222     0.03        
2022     2223     2222     0.03        
2022     2023     2224     0.03        
2022     2224     2223     0.03        
2023     2024     2224     0.03        
2024     2225     2224     0.03        
2024     2025     2226     0.03        
2024     2226     2225     0.03        
2025     2026     2226     0.03        
2026     2227     2226     0.03        
2026     2027     2228     0.03        
2026     2228     2227     0.03        
2027     2028     2228     0.03        
2028     2229     2228     0.03        
2028     2029     2230     0.03        
2028     2230     2229     0.03        
2029     2030     2230     0.03        
2030     2231     2230     0.03        
2030     2031     2232     0.03        
2030     2232     2231     0.03        
2031     2032     2232     0.03        
2032     2233     2232     0.03        
2032     2033     2234     0.03        
2032     2234     2233     0.03        
2033     2034     2234     0.03        
2034     2235     2234     0.03        
2034     2035     2236     0.03        
2034     2236     2235     0.03        
2035     2036     2236     0.03        
2036     2237     2236     0.03        
2036     2037     2238     0.03        
2036     2238     2237     0.03        
2037     2038     2238     0.03        
2038     2239     2238     0.03        
2038     2039     2240     0.03        
2038     2240     2239     0.03        
2039     2040     2240     0.03        
2040     2241     2240     0.03        
2040     2041     2242     0.03        
2040     2242     2241     0.03        
2041     2042     2242     0.03        
2042     2243     2242     0.03        
2042     2043     2244     0.03        
2042     2244     2243     0.03        
2043     2044     2244     0.03        
2044     2245     2244     0.03        
2044     2045     2246     0.03        
2044     2246     2245     0.03        
2045     2046     2246     0.03        
2046     2247     2246     0.03        
2046     2047     2248     0.03        
2046     2248     2247     0.03        
2047     2048     2248     0.03        
2048     2249     2248     0.03        
2048     2049     2250     0.03        
2048     2250     2249     0.03        
2049     2050     2250     0.03        
2050     2251     2250     0.03        
2050     2051     2252     0.03        
2050     2252     2251     0.03        
2051     2052     2252     0.03        
2052     2253     2252     0.03        
2052     2053     2254     0.03        
2052     2254     2253     0.03        
2053     2054     2254     0.03        
2054     2255     2254     0.03        
2054     2055     2256     0.03        
2054     2256     2255     0.03        
2055     2056     2256     0.03        
2056     2257     2256     0.03        
2056     2057     2258     0.03        
2056     2258     2257     0.03        
2057     2058     2258     0.03        
2058     2259     2258     0.03        
2058     2059     2260     0.03        
2058     2260     2259     0.03        
2059     2060     2260     0.03        
2060     2261     2260     0.03        
2060     2061     2262     0.03        
2060     2262     2261     0.03        
2061     2062     2262     0.03        
2062     2263     2262     0.03        
2062     2063     2264     0.03        
2062     2264     2263     0.03        
2063     2064     2264     0.03        
2064     2265     2264     0.03        
2064     2065     2266     0.03        
2064     2266     2265     0.03        
2065     2066     2266     0.03        
2066     2267     2266     0.03        
2066     2067     2268     0.03        
2066     2268     2267     0.03        
2067     2068     2268     0.03        
2068     2269     2268     0.03        
2068     2069     2270     0.03        
2068     2270     2269     0.03        
2069     2070     2270     0.03        
2070     2271     2270     0.03        
2070     2071     2272     0.03        
2070     2272     2271     0.03        
2071     2072     2272     0.03        
2072     2273     2272     0.03        
2072     2073     2274     0.03        
2072     2274     2273     0.03        
2073     2074     2274     0.03        
2074     2275     2274     0.03        
2074     2075     2276     0.03        
2074     2276     2275     0.03        
2075     2076     2276     0.03        
2076     2277     2276     0.03        
2076     2077     2278     0.03        
2076     2278     2277     0.03        
2077     2078     2278     0.03        
2078     2279     2278     0.03        
2078     2079     2280     0.03        
2078     2280     2279     0.03        
2079     2080     2280     0.03        
2080     2281     2280     0.03        
2080     2081     2282     0.03        
2080     2282     2281     0.03        
2081     2082     2282     0.03        
2082     2283     2282     0.03        
2082     2083     2284     0.03        
2082     2284     2283     0.03        
2083     2084     2284     0.03        
2084     2285     2284     0.03        
2084     2085     2286     0.03        
2084     2286     2285     0.03        
2085     2086     2286     0.03        
2086     2287     2286     0.03        
2086     2087     2288     0.03        
2086     2288     2287     0.03        
2087     2088     2288     0.03        
2088     2289     2288     0.03        
2088     2089     2290     0.03        
2088     2290     2289     0.03        
2089     2090     2290     0.03        
2090     2291     2290     0.03        
2090     2091     2292     0.03        
2090     2292     2291     0.03        
2091     2092     2292     0.03        
2092     2293     2292     0.03        
2092     2093     2294     0.03        
2092     2294     2293     0.03        
2093     2094     2294     0.03        
2094     2295     2294     0.03        
2094     2095     2296     0.03        
2094     2296     2295     0.03        
2095     2096     2296     0.03        
2096     2297     2296     0.03        
2096     2097     2298     0.03        
2096     2298     2297     0.03        
2097     2098     2298     0.03        
2098     2299     2298     0.03        
2098     2099     2300     0.03        
2098     2300     2299     0.03        
2099     2100     2300     0.03        
2100     2301     2300     0.03        
2100     2101     2302     0.03        
2100     2302     2301     0.03        
2101     2102     2302     0.03        
2102     2303     2302     0.03        
2102     2103     2304     0.03        
2102     2304     2303     0.03        
2103     2104     2304     0.03        
2104     2305     2304     0.03        
2104     2105     2306     0.03        
2104     2306     2305     0.03        
2105     2106     2306     0.03        
2106     2307     2306     0.03        
2106     2107     2308     0.03        
2106     2308     2307     0.03        
2107     2108     2308     0.03        
2108     2309     2308     0.03        
2108     2109     2310     0.03        
2108     2310     2309     0.03        
2109     2110     2310     0.03        
2110     2311     2310     0.03        
2110     2111     2312     0.03        
2110     2312     2311     0.03        
2111     2112     2312     0.03        
2112     2313     2312     0.03        
2112     2113     2314     0.03        
2112     2314     2313     0.03        
2113     2114     2314     0.03        
2114     2315     2314     0.03        
2114     2115     2316     0.03        
2114     2316     2315     0.03        
2115     2116     2316     0.03        
2116     2317     2316     0.03        
2116     2117     2318     0.03        
2116     2318     2317     0.03        
2117     2118     2318     0.03        
2118     2319     2318     0.03        
2118     2119     2320     0.03        
2118     2320     2319     0.03        
2119     2120     2320     0.03        
2120     2321     2320     0.03        
2120     2121     2322     0.03        
2120     2322     2321     0.03        
2121     2122     2322     0.03        
2122     2323     2322     0.03        
2122     2123     2324     0.03        
2122     2324     2323     0.03        
2123     2124     2324     0.03        
2124     2325     2324     0.03        
2124     2125     2326     0.03        
2124     2326     2325     0.03        
2125     2126     2326     0.03        
2126     2327     2326     0.03        
2126     2127     2328     0.03        
2126     2328     2327     0.03        
2127     2128     2328     0.03        
2128     2329     2328     0.03        
2128     2129     2330     0.03        
2128     2330     2329     0.03        
2129     2130     2330     0.03        
2130     2331     2330     0.03        
2130     2131     2332     0.03        
2130     2332     2331     0.03        
2131     2132     2332     0.03        
2132     2333     2332     0.03        
2132     2133     2334     0.03        
2132     2334     2333     0.03        
2133     2134     2334     0.03        
2134     2335     2334     0.03        
2134     2135     2336     0.03        
2134     2336     2335     0.03        
2135     2136     2336     0.03        
2136     2337     2336     0.03        
2136     2137     2338     0.03        
2136     2338     2337     0.03        
2137     2138     2338     0.03        
2138     2339     2338     0.03        
2138     2139     2340     0.03        
2138     2340     2339     0.03        
2139     2140     2340     0.03        
2140     2341     2340     0.03        
2140     2141     2342     0.03        
2140     2342     2341     0.03        
2141     2142     2342     0.03        
2142     2343     2342     0.03        
2142     2143     2344     0.03        
2142     2344     2343     0.03        
2143     2144     2344     0.03        
2144     2345     2344     0.03        
2144     2145     2346     0.03        
2144     2346     2345     0.03        
2145     2146     2346     0.03        
2146     2347     2346     0.03        
2146     2147     2348     0.03        
2146     2348     2347     0.03        
2147     2148     2348     0.03        
2148     2349     2348     0.03        
2148     2149     2350     0.03        
2148     2350     2349     0.03        
2149     2150     2350     0.03        
2150     2351     2350     0.03        
2150     2151     2352     0.03        
2150     2352     2351     0.03        
2151     2152     2352     0.03        
2152     2353     2352     0.03        
2152     2153     2354     0.03        
2152     2354     2353     0.03        
2153     2154     2354     0.03        
2154     2355     2354     0.03        
2154     2155     2356     0.03        
2154     2356     2355     0.03        
2155     2156     2356     0.03        
2156     2357     2356     0.03        
2156     2157     2358     0.03        
2156     2358     2357     0.03        
2157     2158     2358     0.03        
2158     2359     2358     0.03        
2158     2159     2360     0.03        
2158     2360     2359     0.03        
2159     2160     2360     0.03        
2160     2361     2360     0.03        
2160     2161     2362     0.03        
2160     2362     2361     0.03        
2161     2162     2362     0.03        
2162     2363     2362     0.03        
2162     2163     2364     0.03        
2162     2364     2363     0.03        
2163     2164     2364     0.03        
2164     2365     2364     0.03        
2164     2165     2366     0.03        
2164     2366     2365     0.03        
2165     2166     2366     0.03        
2166     2367     2366     0.03        
2166     2167     2368     0.03        
2166     2368     2367     0.03        
2167     2168     2368     0.03        
2168     2369     2368     0.03        
2168     2169     2370     0.03        
2168     2370     2369     0.03        
2169     2170     2370     0.03        
2170     2371     2370     0.03        
2170     2171     2372     0.03        
2170     2372     2371     0.03        
2171     2172     2372     0.03        
2172     2373     2372     0.03        
2172     2173     2374     0.03        
2172     2374     2373     0.03        
2173     2174     2374     0.03        
2174     2375     2374     0.03        
2174     2175     2376     0.03        
2174     2376     2375     0.03        
2175     2176     2376     0.03        
2176     2377     2376     0.03        
2176     2177     2378     0.03        
2176     2378     2377     0.03        
2177     2178     2378     0.03        
2178     2379     2378     0.03        
2178     2179     2380     0.03        
2178     2380     2379     0.03        
2179     2180     2380     0.03        
2180     2381     2380     0.03        
2180     2181     2382     0.03        
2180     2382     2381     0.03        
2181     2182     2382     0.03        
2182     2383     2382     0.03        
2182     2183     2384     0.03        
2182     2384     2383     0.03        
2183     2184     2384     0.03        
2184     2385     2384     0.03        
2184     2185     2386     0.03        
2184     2386     2385     0.03        
2185     2186     2386     0.03        
2186     2387     2386     0.03        
2186     2187     2388     0.03        
2186     2388     2387     0.03        
2187     2188     2388     0.03        
2188     2389     2388     0.03        
2188     2189     2390     0.03        
2188     2390     2389     0.03        
2189     2190     2390     0.03        
2190     2391     2390     0.03        
2190     2191     2392     0.03        
2190     2392     2391     0.03        
2191     2192     2392     0.03        
2192     2393     2392     0.03        
2192     2193     2394     0.03        
2192     2394     2393     0.03        
2193     2194     2394     0.03        
2194     2395     2394     0.03        
2194     2195     2396     0.03        
2194     2396     2395     0.03        
2195     2196     2396     0.03        
2196     2397     2396     0.03        
2196     2197     2398     0.03        
2196     2398     2397     0.03        
2197     2198     2398     0.03        
2198     2399     2398     0.03        
2198     2199     2400     0.03        
2198     2400     2399     0.03        
2199     2200     2400     0.03        
2200     2401     2400     0.03        
2200     2201     2402     0.03        
2200     2402     2401     0.03        
2201     2202     2402     0.03        
2202     2403     2402     0.03        
2202     2203     2404     0.03        
2202     2404     2403     0.03        
2203     2204     2404     0.03        
2204     2405     2404     0.03        
2204     2205     2406     0.03        
2204     2406     2405     0.03        
2205     2206     2406     0.03        
2206     2407     2406     0.03        
2206     2207     2408     0.03        
2206     2408     2407     0.03        
2207     2208     2408     0.03        
2208     2409     2408     0.03        
2208     2209     2410     0.03        
2208     2410     2409     0.03        
2209     2210     2410     0.03        
2210     2411     2410     0.03        
2211     2212     2412     0.03        
2212     2413     2412     0.03        
2212     2213     2414     0.03        
2212     2414     2413     0.03        
2213     2214     2414     0.03        
2214     2415     2414     0.03        
2214     2215     2416     0.03        
2214     2416     2415     0.03        
2215     2216     2416     0.03        
2216     2417     2416     0.03        
2216     2217     2418     0.03        
2216     2418     2417     0.03        
2217     2218     2418     0.03        
2218     2419     2418     0.03        
2218     2219     2420     0.03        
2218     2420     2419     0.03        
2219     2220     2420     0.03        
2220     2421     2420     0.03        
2220     2221     2422     0.03        
2220     2422     2421     0.03        
2221     2222     2422     0.03        
2222     2423     2422     0.03        
2222     2223     2424     0.03        
2222     2424     2423     0.03        
2223     2224     2424     0.03        
2224     2425     2424     0.03        
2224     2225     2426     0.03        
2224     2426     2425     0.03        
2225     2226     2426     0.03        
2226     2427     2426     0.03        
2226     2227     2428     0.03        
2226     2428     2427     0.03        
2227     2228     2428     0.03        
2228     2429     2428     0.03        
2228     2229     2430     0.03        
2228     2430     2429     0.03        
2229     2230     2430     0.03        
2230     2431     2430     0.03        
2230     2231     2432     0.03        
2230     2432     2431     0.03        
2231     2232     2432     0.03        
2232     2433     2432     0.03        
2232     2233     2434     0.03        
2232     2434     2433     0.03        
2233     2234     2434     0.03        
2234     2435     2434     0.03        
2234     2235     2436     0.03        
2234     2436     2435     0.03        
2235     2236     2436     0.03        
2236     2437     2436     0.03        
2236     2237     2438     0.03        
2236     2438     2437     0.03        
2237     2238     2438     0.03        
2238     2439     2438     0.03        
2238     2239     2440     0.03        
2238     2440     2439     0.03        
2239     2240     2440     0.03        
2240     2441     2440     0.03        
2240     2241     2442     0.03        
2240     2442     2441     0.03        
2241     2242     2442     0.03        
2242     2443     2442     0.03        
2242     2243     2444     0.03        
2242     2444     2443     0.03        
2243     2244     2444     0.03        
2244     2445     2444     0.03        
2244     2245     2446     0.03        
2244     2446     2445     0.03        
2245     2246     2446     0.03        
2246     2447     2446     0.03        
2246     2247     2448     0.03        
2246     2448     2447     0.03        
2247     2248     2448     0.03        
2248     2449     2448     0.03        
2248     2249     2450     0.03        
2248     2450     2449     0.03        
2249     2250     2450     0.03        
2250     2451     2450     0.03        
2250     2251     2452     0.03        
2250     2452     2451     0.03        
2251     2252     2452     0.03        
2252     2453     2452     0.03        
2252     2253     2454     0.03        
2252     2454     2453     0.03        
2253     2254     2454     0.03        
2254     2455     2454     0.03        
2254     2255     2456     0.03        
2254     2456     2455     0.03        
2255     2256     2456     0.03        
2256     2457     2456     0.03        
2256     2257     2458     0.03        
2256     2458     2457     0.03        
2257     2258     2458     0.03        
2258     2459     2458     0.03        
2258     2259     2460     0.03        
2258     2460     2459     0.03        
2259     2260     2460     0.03        
2260     2461     2460     0.03        
2260     2261     2462     0.03        
2260     2462     2461     0.03        
2261     2262     2462     0.03        
2262     2463     2462     0.03        
2262     2263     2464     0.03        
2262     2464     2463     0.03        
2263     2264     2464     0.03        
2264     2465     2464     0.03        
2264     2265     2466     0.03        
2264     2466     2465     0.03        
2265     2266     2466     0.03        
2266     2467     2466     0.03        
2266     2267     2468     0.03        
2266     2468     2467     0.03        
2267     2268     2468     0.03        
2268     2469     2468     0.03        
2268     2269     2470     0.03        
2268     2470     2469     0.03        
2269     2270     2470     0.03        
2270     2471     2470     0.03        
2270     2271     2472     0.03        
2270     2472     2471     0.03        
2271     2272     2472     0.03        
2272     2473     2472     0.03        
2272     2273     2474     0.03        
2272     2474     2473     0.03        
2273     2274     2474     0.03        
2274     2475     2474     0.03        
2274     2275     2476     0.03        
2274     2476     2475     0.03        
2275     2276     2476     0.03        
2276     2477     2476     0.03        
2276     2277     2478     0.03        
2276     2478     2477     0.03        
2277     2278     2478     0.03        
2278     2479     2478     0.03        
2278     2279     2480     0.03        
2278     2480     2479     0.03        
2279     2280     2480     0.03        
2280     2481     2480     0.03        
2280     2281     2482     0.03        
2280     2482     2481     0.03        
2281     2282     2482     0.03        
2282     2483     2482     0.03        
2282     2283     2484     0.03        
2282     2484     2483     0.03        
2283     2284     2484     0.03        
2284     2485     2484     0.03        
2284     2285     2486     0.03        
2284     2486     2485     0.03        
2285     2286     2486     0.03        
2286     2487     2486     0.03        
2286     2287     2488     0.03        
2286     2488     2487     0.03        
2287     2288     2488     0.03        
2288     2489     2488     0.03        
2288     2289     2490     0.03        
2288     2490     2489     0.03        
2289     2290     2490     0.03        
2290     2491     2490     0.03        
2290     2291     2492     0.03        
2290     2492     2491     0.03        
2291     2292     2492     0.03        
2292     2493     2492     0.03        
2292     2293     2494     0.03        
2292     2494     2493     0.03        
2293     2294     2494     0.03        
2294     2495     2494     0.03        
2294     2295     2496     0.03        
2294     2496     2495     0.03        
2295     2296     2496     0.03        
2296     2497     2496     0.03        
2296     2297     2498     0.03        
2296     2498     2497     0.03        
2297     2298     2498     0.03        
2298     2499     2498     0.03        
2298     2299     2500     0.03        
2298     2500     2499     0.03        
2299     2300     2500     0.03        
2300     2501     2500     0.03        
2300     2301     2502     0.03        
2300     2502     2501     0.03        
2301     2302     2502     0.03        
2302     2503     2502     0.03        
2302     2303     2504     0.03        
2302     2504     2503     0.03        
2303     2304     2504     0.03        
2304     2505     2504     0.03        
2304     2305     2506     0.03        
2304     2506     2505     0.03        
2305     2306     2506     0.03        
2306     2507     2506     0.03        
2306     2307     2508     0.03        
2306     2508     2507     0.03        
2307     2308     2508     0.03        
2308     2509     2508     0.03        
2308     2309     2510     0.03        
2308     2510     2509     0.03        
2309     2310     2510     0.03        
2310     2511     2510     0.03        
2310     2311     2512     0.03        
2310     2512     2511     0.03        
2311     2312     2512     0.03        
2312     2513     2512     0.03        
2312     2313     2514     0.03        
2312     2514     2513     0.03        
2313     2314     2514     0.03        
2314     2515     2514     0.03        
2314     2315     2516     0.03        
2314     2516     2515     0.03        
2315     2316     2516     0.03        
2316     2517     2516     0.03        
2316     2317     2518     0.03        
2316     2518     2517     0.03        
2317     2318     2518     0.03        
2318     2519     2518     0.03        
2318     2319     2520     0.03        
2318     2520     2519     0.03        
2319     2320     2520     0.03        
2320     2521     2520     0.03        
2320     2321     2522     0.03        
2320     2522     2521     0.03        
2321     2322     2522     0.03        
2322     2523     2522     0.03        
2322     2323     2524     0.03        
2322     2524     2523     0.03        
2323     2324     2524     0.03        
2324     2525     2524     0.03        
2324     2325     2526     0.03        
2324     2526     2525     0.03        
2325     2326     2526     0.03        
2326     2527     2526     0.03        
2326     2327     2528     0.03        
2326     2528     2527     0.03        
2327     2328     2528     0.03        
2328     2529     2528     0.03        
2328     2329     2530     0.03        
2328     2530     2529     0.03        
2329     2330     2530     0.03        
2330     2531     2530     0.03        
2330     2331     2532     0.03        
2330     2532     2531     0.03        
2331     2332     2532     0.03        
2332     2533     2532     0.03        
2332     2333     2534     0.03        
2332     2534     2533     0.03        
2333     2334     2534     0.03        
2334     2535     2534     0.03        
2334     2335     2536     0.03        
2334     2536     2535     0.03        
2335     2336     2536     0.03        
2336     2537     2536     0.03        
2336     2337     2538     0.03        
2336     2538     2537     0.03        
2337     2338     2538     0.03        
2338     2539     2538     0.03        
2338     2339     2540     0.03        
2338     2540     2539     0.03        
2339     2340     2540     0.03        
2340     2541     2540     0.03        
2340     2341     2542     0.03        
2340     2542     2541     0.03        
2341     2342     2542     0.03        
2342     2543     2542     0.03        
2342     2343     2544     0.03        
2342     2544     2543     0.03        
2343     2344     2544     0.03        
2344     2545     2544     0.03        
2344     2345     2546     0.03        
2344     2546     2545     0.03        
2345     2346     2546     0.03        
2346     2547     2546     0.03        
2346     2347     2548     0.03        
2346     2548     2547     0.03        
2347     2348     2548     0.03        
2348     2549     2548     0.03        
2348     2349     2550     0.03        
2348     2550     2549     0.03        
2349     2350     2550     0.03        
2350     2551     2550     0.03        
2350     2351     2552     0.03        
2350     2552     2551     0.03        
2351     2352     2552     0.03        
2352     2553     2552     0.03        
2352     2353     2554     0.03        
2352     2554     2553     0.03        
2353     2354     2554     0.03        
2354     2555     2554     0.03        
2354     2355     2556     0.03        
2354     2556     2555     0.03        
2355     2356     2556     0.03        
2356     2557     2556     0.03        
2356     2357     2558     0.03        
2356     2558     2557     0.03        
2357     2358     2558     0.03        
2358     2559     2558     0.03        
2358     2359     2560     0.03        
2358     2560     2559     0.03        
2359     2360     2560     0.03        
2360     2561     2560     0.03        
2360     2361     2562     0.03        
2360     2562     2561     0.03        
2361     2362     2562     0.03        
2362     2563     2562     0.03        
2362     2363     2564     0.03        
2362     2564     2563     0.03        
2363     2364     2564     0.03        
2364     2565     2564     0.03        
2364     2365     2566     0.03        
2364     2566     2565     0.03        
2365     2366     2566     0.03        
2366     2567     2566     0.03        
2366     2367     2568     0.03        
2366     2568     2567     0.03        
2367     2368     2568     0.03        
2368     2569     2568     0.03        
2368     2369     2570     0.03        
2368     2570     2569     0.03        
2369     2370     2570     0.03        
2370     2571     2570     0.03        
2370     2371     2572     0.03        
2370     2572     2571     0.03        
2371     2372     2572     0.03        
2372     2573     2572     0.03        
2372     2373     2574     0.03        
2372     2574     2573     0.03        
2373     2374     2574     0.03        
2374     2575     2574     0.03        
2374     2375     2576     0.03        
2374     2576     2575     0.03        
2375     2376     2576     0.03        
2376     2577     2576     0.03        
2376     2377     2578     0.03        
2376     2578     2577     0.03        
2377     2378     2578     0.03        
2378     2579     2578     0.03        
2378     2379     2580     0.03        
2378     2580     2579     0.03        
2379     2380     2580     0.03        
2380     2581     2580     0.03        
2380     2381     2582     0.03        
2380     2582     2581     0.03        
2381     2382     2582     0.03        
2382     2583     2582     0.03        
2382     2383     2584     0.03        
2382     2584     2583     0.03        
2383     2384     2584     0.03        
2384     2585     2584     0.03        
2384     2385     2586     0.03        
2384     2586     2585     0.03        
2385     2386     2586     0.03        
2386     2587     2586     0.03        
2386     2387     2588     0.03        
2386     2588     2587     0.03        
2387     2388     2588     0.03        
2388     2589     2588     0.03        
2388     2389     2590     0.03        
2388     2590     2589     0.03        
2389     2390     2590     0.03        
2390     2591     2590     0.03        
2390     2391     2592     0.03        
2390     2592     2591     0.03        
2391     2392     2592     0.03        
2392     2593     2592     0.03        
2392     2393     2594     0.03        
2392     2594     2593     0.03        
2393     2394     2594     0.03        
2394     2595     2594     0.03        
2394     2395     2596     0.03        
2394     2596     2595     0.03        
2395     2396     2596     0.03        
2396     2597     2596     0.03        
2396     2397     2598     0.03        
2396     2598     2597     0.03        
2397     2398     2598     0.03        
2398     2599     2598     0.03        
2398     2399     2600     0.03        
2398     2600     2599     0.03        
2399     2400     2600     0.03        
2400     2601     2600     0.03        
2400     2401     2602     0.03        
2400     2602     2601     0.03        
2401     2402     2602     0.03        
2402     2603     2602     0.03        
2402     2403     2604     0.03        
2402     2604     2603     0.03        
2403     2404     2604     0.03        
2404     2605     2604     0.03        
2404     2405     2606     0.03        
2404     2606     2605     0.03        
2405     2406     2606     0.03        
2406     2607     2606     0.03        
2406     2407     2608     0.03        
2406     2608     2607     0.03        
2407     2408     2608     0.03        
2408     2609     2608     0.03        
2408     2409     2610     0.03        
2408     2610     2609     0.03        
2409     2410     2610     0.03        
2410     2611     2610     0.03        
2410     2411     2612     0.03        
2410     2612     2611     0.03        
2412     2413     2614     0.03        
2412     2614     2613     0.03        
2413     2414     2614     0.03        
2414     2615     2614     0.03        
2414     2415     2616     0.03        
2414     2616     2615     0.03        
2415     2416     2616     0.03        
2416     2617     2616     0.03        
2416     2417     2618     0.03        
2416     2618     2617     0.03        
2417     2418     2618     0.03        
2418     2619     2618     0.03        
2418     2419     2620     0.03        
2418     2620     2619     0.03        
2419     2420     2620     0.03        
2420     2621     2620     0.03        
2420     2421     2622     0.03        
2420     2622     2621     0.03        
2421     2422     2622     0.03        
2422     2623     2622     0.03        
2422     2423     2624     0.03        
2422     2624     2623     0.03        
2423     2424     2624     0.03        
2424     2625     2624     0.03        
2424     2425     2626     0.03        
2424     2626     2625     0.03        
2425     2426     2626     0.03        
2426     2627     2626     0.03        
2426     2427     2628     0.03        
2426     2628     2627     0.03        
2427     2428     2628     0.03        
2428     2629     2628     0.03        
2428     2429     2630     0.03        
2428     2630     2629     0.03        
2429     2430     2630     0.03        
2430     2631     2630     0.03        
2430     2431     2632     0.03        
2430     2632     2631     0.03        
2431     2432     2632     0.03        
2432     2633     2632     0.03        
2432     2433     2634     0.03        
2432     2634     2633     0.03        
2433     2434     2634     0.03        
2434     2635     2634     0.03        
2434     2435     2636     0.03        
2434     2636     2635     0.03        
2435     2436     2636     0.03        
2436     2637     2636     0.03        
2436     2437     2638     0.03        
2436     2638     2637     0.03        
2437     2438     2638     0.03        
2438     2639     2638     0.03        
2438     2439     2640     0.03        
2438     2640     2639     0.03        
2439     2440     2640     0.03        
2440     2641     2640     0.03        
2440     2441     2642     0.03        
2440     2642     2641     0.03        
2441     2442     2642     0.03        
2442     2643     2642     0.03        
2442     2443     2644     0.03        
2442     2644     2643     0.03        
2443     2444     2644     0.03        
2444     2645     2644     0.03        
2444     2445     2646     0.03        
2444     2646     2645     0.03        
2445     2446     2646     0.03        
2446     2647     2646     0.03        
2446     2447     2648     0.03        
2446     2648     2647     0.03        
2447     2448     2648     0.03        
2448     2649     2648     0.03        
2448     2449     2650     0.03        
2448     2650     2649     0.03        
2449     2450     2650     0.03        
2450     2651     2650     0.03        
2450     2451     2652     0.03        
2450     2652     2651     0.03        
2451     2452     2652     0.03        
2452     2653     2652     0.03        
2452     2453     2654     0.03        
2452     2654     2653     0.03        
2453     2454     2654     0.03        
2454     2655     2654     0.03        
2454     2455     2656     0.03        
2454     2656     2655     0.03        
2455     2456     2656     0.03        
2456     2657     2656     0.03        
2456     2457     2658     0.03        
2456     2658     2657     0.03        
2457     2458     2658     0.03        
2458     2659     2658     0.03        
2458     2459     2660     0.03        
2458     2660     2659     0.03        
2459     2460     2660     0.03        
2460     2661     2660     0.03        
2460     2461     2662     0.03        
2460     2662     2661     0.03        
2461     2462     2662     0.03        
2462     2663     2662     0.03        
2462     2463     2664     0.03        
2462     2664     2663     0.03        
2463     2464     2664     0.03        
2464     2665     2664     0.03        
2464     2465     2666     0.03        
2464     2666     2665     0.03        
2465     2466     2666     0.03        
2466     2667     2666     0.03        
2466     2467     2668     0.03        
2466     2668     2667     0.03        
2467     2468     2668     0.03        
2468     2669     2668     0.03        
2468     2469     2670     0.03        
2468     2670     2669     0.03        
2469     2470     2670     0.03        
2470     2671     2670     0.03        
2470     2471     2672     0.03        
2470     2672     2671     0.03        
2471     2472     2672     0.03        
2472     2673     2672     0.03        
2472     2473     2674     0.03        
2472     2674     2673     0.03        
2473     2474     2674     0.03        
2474     2675     2674     0.03        
2474     2475     2676     0.03        
2474     2676     2675     0.03        
2475     2476     2676     0.03        
2476     2677     2676     0.03        
2476     2477     2678     0.03        
2476     2678     2677     0.03        
2477     2478     2678     0.03        
2478     2679     2678     0.03        
2478     2479     2680     0.03        
2478     2680     2679     0.03        
2479     2480     2680     0.03        
2480     2681     2680     0.03        
2480     2481     2682     0.03        
2480     2682     2681     0.03        
2481     2482     2682     0.03        
2482     2683     2682     0.03        
2482     2483     2684     0.03        
2482     2684     2683     0.03        
2483     2484     2684     0.03        
2484     2685     2684     0.03        
2484     2485     2686     0.03        
2484     2686     2685     0.03        
2485     2486     2686     0.03        
2486     2687     2686     0.03        
2486     2487     2688     0.03        
2486     2688     2687     0.03        
2487     2488     2688     0.03        
2488     2689     2688     0.03        
2488     2489     2690     0.03        
2488     2690     2689     0.03        
2489     2490     2690     0.03        
2490     2691     2690     0.03        
2490     2491     2692     0.03        
2490     2692     2691     0.03        
2491     2492     2692     0.03        
2492     2693     2692     0.03        
2492     2493     2694     0.03        
2492     2694     2693     0.03        
2493     2494     2694     0.03        
2494     2695     2694     0.03        
2494     2495     2696     0.03        
2494     2696     2695     0.03        
2495     2496     2696     0.03        
2496     2697     2696     0.03        
2496     2497     2698     0.03        
2496     2698     2697     0.03        
2497     2498     2698     0.03        
2498     2699     2698     0.03        
2498     2499     2700     0.03        
2498     2700     2699     0.03        
2499     2500     2700     0.03        
2500     2701     2700     0.03        
2500     2501     2702     0.03        
2500     2702     2701     0.03        
2501     2502     2702     0.03        
2502     2703     2702     0.03        
2502     2503     2704     0.03        
2502     2704     2703     0.03        
2503     2504     2704     0.03        
2504     2705     2704     0.03        
2504     2505     2706     0.03        
2504     2706     2705     0.03        
2505     2506     2706     0.03        
2506     2707     2706     0.03        
2506     2507     2708     0.03        
2506     2708     2707     0.03        
2507     2508     2708     0.03        
2508     2709     2708     0.03        
2508     2509     2710     0.03        
2508     2710     2709     0.03        
2509     2510     2710     0.03        
2510     2711     2710     0.03        
2510     2511     2712     0.03        
2510     2712     2711     0.03        
2511     2512     2712     0.03        
2512     2713     2712     0.03        
2512     2513     2714     0.03        
2512     2714     2713     0.03        
2513     2514     2714     0.03        
2514     2715     2714     0.03        
2514     2515     2716     0.03        
2514     2716     2715     0.03        
2515     2516     2716     0.03        
2516     2717     2716     0.03        
2516     2517     2718     0.03        
2516     2718     2717     0.03        
2517     2518     2718     0.03        
2518     2719     2718     0.03        
2518     2519     2720     0.03        
2518     2720     2719     0.03        
2519     2520     2720     0.03        
2520     2721     2720     0.03        
2520     2521     2722     0.03        
2520     2722     2721     0.03        
2521     2522     2722     0.03        
2522     2723     2722     0.03        
2522     2523     2724     0.03        
2522     2724     2723     0.03        
2523     2524     2724     0.03        
2524     2725     2724     0.03        
2524     2525     2726     0.03        
2524     2726     2725     0.03        
2525     2526     2726     0.03        
2526     2727     2726     0.03        
2526     2527     2728     0.03        
2526     2728     2727     0.03        
2527     2528     2728     0.03        
2528     2729     2728     0.03        
2528     2529     2730     0.03        
2528     2730     2729     0.03        
2529     2530     2730     0.03        
2530     2731     2730     0.03        
2530     2531     2732     0.03        
2530     2732     2731     0.03        
2531     2532     2732     0.03        
2532     2733     2732     0.03        
2532     2533     2734     0.03        
2532     2734     2733     0.03        
2533     2534     2734     0.03        
2534     2735     2734     0.03        
2534     2535     2736     0.03        
2534     2736     2735     0.03        
2535     2536     2736     0.03        
2536     2737     2736     0.03        
2536     2537     2738     0.03        
2536     2738     2737     0.03        
2537     2538     2738     0.03        
2538     2739     2738     0.03        
2538     2539     2740     0.03        
2538     2740     2739     0.03        
2539     2540     2740     0.03        
2540     2741     2740     0.03        
2540     2541     2742     0.03        
2540     2742     2741     0.03        
2541     2542     2742     0.03        
2542     2743     2742     0.03        
2542     2543     2744     0.03        
2542     2744     2743     0.03        
2543     2544     2744     0.03        
2544     2745     2744     0.03        
2544     2545     2746     0.03        
2544     2746     2745     0.03        
2545     2546     2746     0.03        
2546     2747     2746     0.03        
2546     2547     2748     0.03        
2546     2748     2747     0.03        
2547     2548     2748     0.03        
2548     2749     2748     0.03        
2548     2549     2750     0.03        
2548     2750     2749     0.03        
2549     2550     2750     0.03        
2550     2751     2750     0.03        
2550     2551     2752     0.03        
2550     2752     2751     0.03        
2551     2552     2752     0.03        
2552     2753     2752     0.03        
2552     2553     2754     0.03        
2552     2754     2753     0.03        
2553     2554     2754     0.03        
2554     2755     2754     0.03        
2554     2555     2756     0.03        
2554     2756     2755     0.03        
2555     2556     2756     0.03        
2556     2757     2756     0.03        
2556     2557     2758     0.03        
2556     2758     2757     0.03        
2557     2558     2758     0.03        
2558     2759     2758     0.03        
2558     2559     2760     0.03        
2558     2760     2759     0.03        
2559     2560     2760     0.03        
2560     2761     2760     0.03        
2560     2561     2762     0.03        
2560     2762     2761     0.03        
2561     2562     2762     0.03        
2562     2763     2762     0.03        
2562     2563     2764     0.03        
2562     2764     2763     0.03        
2563     2564     2764     0.03        
2564     2765     2764     0.03        
2564     2565     2766     0.03        
2564     2766     2765     0.03        
2565     2566     2766     0.03        
2566     2767     2766     0.03        
2566     2567     2768     0.03        
2566     2768     2767     0.03        
2567     2568     2768     0.03        
2568     2769     2768     0.03        
2568     2569     2770     0.03        
2568     2770     2769     0.03        
2569     2570     2770     0.03        
2570     2771     2770     0.03        
2570     2571     2772     0.03        
2570     2772     2771     0.03        
2571     2572     2772     0.03        
2572     2773     2772     0.03        
2572     2573     2774     0.03        
2572     2774     2773     0.03        
2573     2574     2774     0.03        
2574     2775     2774     0.03        
2574     2575     2776     0.03        
2574     2776     2775     0.03        
2575     2576     2776     0.03        
2576     2777     2776     0.03        
2576     2577     2778     0.03        
2576     2778     2777     0.03        
2577     2578     2778     0.03        
2578     2779     2778     0.03        
2578     2579     2780     0.03        
2578     2780     2779     0.03        
2579     2580     2780     0.03        
2580     2781     2780     0.03        
2580     2581     2782     0.03        
2580     2782     2781     0.03        
2581     2582     2782     0.03        
2582     2783     2782     0.03        
2582     2583     2784     0.03        
2582     2784     2783     0.03        
2583     2584     2784     0.03        
2584     2785     2784     0.03        
2584     2585     2786     0.03        
2584     2786     2785     0.03        
2585     2586     2786     0.03        
2586     2787     2786     0.03        
2586     2587     2788     0.03        
2586     2788     2787     0.03        
2587     2588     2788     0.03        
2588     2789     2788     0.03        
2588     2589     2790     0.03        
2588     2790     2789     0.03        
2589     2590     2790     0.03        
2590     2791     2790     0.03        
2590     2591     2792     0.03        
2590     2792     2791     0.03        
2591     2592     2792     0.03        
2592     2793     2792     0.03        
2592     2593     2794     0.03        
2592     2794     2793     0.03        
2593     2594     2794     0.03        
2594     2795     2794     0.03        
2594     2595     2796     0.03        
2594     2796     2795     0.03        
2595     2596     2796     0.03        
2596     2797     2796     0.03        
2596     2597     2798     0.03        
2596     2798     2797     0.03        
2597     2598     2798     0.03        
2598     2799     2798     0.03        
2598     2599     2800     0.03        
2598     2800     2799     0.03        
2599     2600     2800     0.03        
2600     2801     2800     0.03        
2600     2601     2802     0.03        
2600     2802     2801     0.03        
2601     2602     2802     0.03        
2602     2803     2802     0.03        
2602     2603     2804     0.03        
2602     2804     2803     0.03        
2603     2604     2804     0.03        
2604     2805     2804     0.03        
2604     2605     2806     0.03        
2604     2806     2805     0.03        
2605     2606     2806     0.03        
2606     2807     2806     0.03        
2606     2607     2808     0.03        
2606     2808     2807     0.03        
2607     2608     2808     0.03        
2608     2809     2808     0.03        
2608     2609     2810     0.03        
2608     2810     2809     0.03        
2609     2610     2810     0.03        
2610     2811     2810     0.03        
2610     2611     2812     0.03        
2610     2812     2811     0.03        
2611     2612     2812     0.03        
2612     2813     2812     0.03        
2613     2614     2814     0.03        
2614     2815     2814     0.03        
2614     2615     2816     0.03        
2614     2816     2815     0.03        
2615     2616     2816     0.03        
2616     2817     2816     0.03        
2616     2617     2818     0.03        
2616     2818     2817     0.03        
2617     2618     2818     0.03        
2618     2819     2818     0.03        
2618     2619     2820     0.03        
2618     2820     2819     0.03        
2619     2620     2820     0.03        
2620     2821     2820     0.03        
2620     2621     2822     0.03        
2620     2822     2821     0.03        
2621     2622     2822     0.03        
2622     2823     2822     0.03        
2622     2623     2824     0.03        
2622     2824     2823     0.03        
2623     2624     2824     0.03        
2624     2825     2824     0.03        
2624     2625     2826     0.03        
2624     2826     2825     0.03        
2625     2626     2826     0.03        
2626     2827     2826     0.03        
2626     2627     2828     0.03        
2626     2828     2827     0.03        
2627     2628     2828     0.03        
2628     2829     2828     0.03        
2628     2629     2830     0.03        
2628     2830     2829     0.03        
2629     2630     2830     0.03        
2630     2831     2830     0.03        
2630     2631     2832     0.03        
2630     2832     2831     0.03        
2631     2632     2832     0.03        
2632     2833     2832     0.03        
2632     2633     2834     0.03        
2632     2834     2833     0.03        
2633     2634     2834     0.03        
2634     2835     2834     0.03        
2634     2635     2836     0.03        
2634     2836     2835     0.03        
2635     2636     2836     0.03        
2636     2837     2836     0.03        
2636     2637     2838     0.03        
2636     2838     2837     0.03        
2637     2638     2838     0.03        
2638     2839     2838     0.03        
2638     2639     2840     0.03        
2638     2840     2839     0.03        
2639     2640     2840     0.03        
2640     2841     2840     0.03        
2640     2641     2842     0.03        
2640     2842     2841     0.03        
2641     2642     2842     0.03        
2642     2843     2842     0.03        
2642     2643     2844     0.03        
2642     2844     2843     0.03        
2643     2644     2844     0.03        
2644     2845     2844     0.03        
2644     2645     2846     0.03        
2644     2846     2845     0.03        
2645     2646     2846     0.03        
2646     2847     2846     0.03        
2646     2647     2848     0.03        
2646     2848     2847     0.03        
2647     2648     2848     0.03        
2648     2849     2848     0.03        
2648     2649     2850     0.03        
2648     2850     2849     0.03        
2649     2650     2850     0.03        
2650     2851     2850     0.03        
2650     2651     2852     0.03        
2650     2852     2851     0.03        
2651     2652     2852     0.03        
2652     2853     2852     0.03        
2652     2653     2854     0.03        
2652     2854     2853     0.03        
2653     2654     2854     0.03        
2654     2855     2854     0.03        
2654     2655     2856     0.03        
2654     2856     2855     0.03        
2655     2656     2856     0.03        
2656     2857     2856     0.03        
2656     2657     2858     0.03        
2656     2858     2857     0.03        
2657     2658     2858     0.03        
2658     2859     2858     0.03        
2658     2659     2860     0.03        
2658     2860     2859     0.03        
2659     2660     2860     0.03        
2660     2861     2860     0.03        
2660     2661     2862     0.03        
2660     2862     2861     0.03        
2661     2662     2862     0.03        
2662     2863     2862     0.03        
2662     2663     2864     0.03        
2662     2864     2863     0.03        
2663     2664     2864     0.03        
2664     2865     2864     0.03        
2664     2665     2866     0.03        
2664     2866     2865     0.03        
2665     2666     2866     0.03        
2666     2867     2866     0.03        
2666     2667     2868     0.03        
2666     2868     2867     0.03        
2667     2668     2868     0.03        
2668     2869     2868     0.03        
2668     2669     2870     0.03        
2668     2870     2869     0.03        
2669     2670     2870     0.03        
2670     2871     2870     0.03        
2670     2671     2872     0.03        
2670     2872     2871     0.03        
2671     2672     2872     0.03        
2672     2873     2872     0.03        
2672     2673     2874     0.03        
2672     2874     2873     0.03        
2673     2674     2874     0.03        
2674     2875     2874     0.03        
2674     2675     2876     0.03        
2674     2876     2875     0.03        
2675     2676     2876     0.03        
2676     2877     2876     0.03        
2676     2677     2878     0.03        
2676     2878     2877     0.03        
2677     2678     2878     0.03        
2678     2879     2878     0.03        
2678     2679     2880     0.03        
2678     2880     2879     0.03        
2679     2680     2880     0.03        
2680     2881     2880     0.03        
2680     2681     2882     0.03        
2680     2882     2881     0.03        
2681     2682     2882     0.03        
2682     2883     2882     0.03        
2682     2683     2884     0.03        
2682     2884     2883     0.03        
2683     2684     2884     0.03        
2684     2885     2884     0.03        
2684     2685     2886     0.03        
2684     2886     2885     0.03        
2685     2686     2886     0.03        
2686     2887     2886     0.03        
2686     2687     2888     0.03        
2686     2888     2887     0.03        
2687     2688     2888     0.03        
2688     2889     2888     0.03        
2688     2689     2890     0.03        
2688     2890     2889     0.03        
2689     2690     2890     0.03        
2690     2891     2890     0.03        
2690     2691     2892     0.03        
2690     2892     2891     0.03        
2691     2692     2892     0.03        
2692     2893     2892     0.03        
2692     2693     2894     0.03        
2692     2894     2893     0.03        
2693     2694     2894     0.03        
2694     2895     2894     0.03        
2694     2695     2896     0.03        
2694     2896     2895     0.03        
2695     2696     2896     0.03        
2696     2897     2896     0.03        
2696     2697     2898     0.03        
2696     2898     2897     0.03        
2697     2698     2898     0.03        
2698     2899     2898     0.03        
2698     2699     2900     0.03        
2698     2900     2899     0.03        
2699     2700     2900     0.03        
2700     2901     2900     0.03        
2700     2701     2902     0.03        
2700     2902     2901     0.03        
2701     2702     2902     0.03        
2702     2903     2902     0.03        
2702     2703     2904     0.03        
2702     2904     2903     0.03        
2703     2704     2904     0.03        
2704     2905     2904     0.03        
2704     2705     2906     0.03        
2704     2906     2905     0.03        
2705     2706     2906     0.03        
2706     2907     2906     0.03        
2706     2707     2908     0.03        
2706     2908     2907     0.03        
2707     2708     2908     0.03        
2708     2909     2908     0.03        
2708     2709     2910     0.03        
2708     2910     2909     0.03        
2709     2710     2910     0.03        
2710     2911     2910     0.03        
2710     2711     2912     0.03        
2710     2912     2911     0.03        
2711     2712     2912     0.03        
2712     2913     2912     0.03        
2712     2713     2914     0.03        
2712     2914     2913     0.03        
2713     2714     2914     0.03        
2714     2915     2914     0.03        
2714     2715     2916     0.03        
2714     2916     2915     0.03        
2715     2716     2916     0.03        
2716     2917     2916     0.03        
2716     2717     2918     0.03        
2716     2918     2917     0.03        
2717     2718     2918     0.03        
2718     2919     2918     0.03        
2718     2719     2920     0.03        
2718     2920     2919     0.03        
2719     2720     2920     0.03        
2720     2921     2920     0.03        
2720     2721     2922     0.03        
2720     2922     2921     0.03        
2721     2722     2922     0.03        
2722     2923     2922     0.03        
2722     2723     2924     0.03        
2722     2924     2923     0.03        
2723     2724     2924     0.03        
2724     2925     2924     0.03        
2724     2725     2926     0.03        
2724     2926     2925     0.03        
2725     2726     2926     0.03        
2726     2927     2926     0.03        
2726     2727     2928     0.03        
2726     2928     2927     0.03        
2727     2728     2928     0.03        
2728     2929     2928     0.03        
2728     2729     2930     0.03        
2728     2930     2929     0.03        
2729     2730     2930     0.03        
2730     2931     2930     0.03        
2730     2731     2932     0.03        
2730     2932     2931     0.03        
2731     2732     2932     0.03        
2732     2933     2932     0.03        
2732     2733     2934     0.03        
2732     2934     2933     0.03        
2733     2734     2934     0.03        
2734     2935     2934     0.03        
2734     2735     2936     0.03        
2734     2936     2935     0.03        
2735     2736     2936     0.03        
2736     2937     2936     0.03        
2736     2737     2938     0.03        
2736     2938     2937     0.03        
2737     2738     2938     0.03        
2738     2939     2938     0.03        
2738     2739     2940     0.03        
2738     2940     2939     0.03        
2739     2740     2940     0.03        
2740     2941     2940     0.03        
2740     2741     2942     0.03        
2740     2942     2941     0.03        
2741     2742     2942     0.03        
2742     2943     2942     0.03        
2742     2743     2944     0.03        
2742     2944     2943     0.03        
2743     2744     2944     0.03        
2744     2945     2944     0.03        
2744     2745     2946     0.03        
2744     2946     2945     0.03        
2745     2746     2946     0.03        
2746     2947     2946     0.03        
2746     2747     2948     0.03        
2746     2948     2947     0.03        
2747     2748     2948     0.03        
2748     2949     2948     0.03        
2748     2749     2950     0.03        
2748     2950     2949     0.03        
2749     2750     2950     0.03        
2750     2951     2950     0.03        
2750     2751     2952     0.03        
2750     2952     2951     0.03        
2751     2752     2952     0.03        
2752     2953     2952     0.03        
2752     2753     2954     0.03        
2752     2954     2953     0.03        
2753     2754     2954     0.03        
2754     2955     2954     0.03        
2754     2755     2956     0.03        
2754     2956     2955     0.03        
2755     2756     2956     0.03        
2756     2957     2956     0.03        
2756     2757     2958     0.03        
2756     2958     2957     0.03        
2757     2758     2958     0.03        
2758     2959     2958     0.03        
2758     2759     2960     0.03        
2758     2960     2959     0.03        
2759     2760     2960     0.03        
2760     2961     2960     0.03        
2760     2761     2962     0.03        
2760     2962     2961     0.03        
2761     2762     2962     0.03        
2762     2963     2962     0.03        
2762     2763     2964     0.03        
2762     2964     2963     0.03        
2763     2764     2964     0.03        
2764     2965     2964     0.03        
2764     2765     2966     0.03        
2764     2966     2965     0.03        
2765     2766     2966     0.03        
2766     2967     2966     0.03        
2766     2767     2968     0.03        
2766     2968     2967     0.03        
2767     2768     2968     0.03        
2768     2969     2968     0.03        
2768     2769     2970     0.03        
2768     2970     2969     0.03        
2769     2770     2970     0.03        
2770     2971     2970     0.03        
2770     2771     2972     0.03        
2770     2972     2971     0.03        
2771     2772     2972     0.03        
2772     2973     2972     0.03        
2772     2773     2974     0.03        
2772     2974     2973     0.03        
2773     2774     2974     0.03        
2774     2975     2974     0.03        
2774     2775     2976     0.03        
2774     2976     2975     0.03        
2775     2776     2976     0.03        
2776     2977     2976     0.03        
2776     2777     2978     0.03        
2776     2978     2977     0.03        
2777     2778     2978     0.03        
2778     2979     2978     0.03        
2778     2779     2980     0.03        
2778     2980     2979     0.03        
2779     2780     2980     0.03        
2780     2981     2980     0.03        
2780     2781     2982     0.03        
2780     2982     2981     0.03        
2781     2782     2982     0.03        
2782     2983     2982     0.03        
2782     2783     2984     0.03        
2782     2984     2983     0.03        
2783     2784     2984     0.03        
2784     2985     2984     0.03        
2784     2785     2986     0.03        
2784     2986     2985     0.03        
2785     2786     2986     0.03        
2786     2987     2986     0.03        
2786     2787     2988     0.03        
2786     2988     2987     0.03        
2787     2788     2988     0.03        
2788     2989     2988     0.03        
2788     2789     2990     0.03        
2788     2990     2989     0.03        
2789     2790     2990     0.03        
2790     2991     2990     0.03        
2790     2791     2992     0.03        
2790     2992     2991     0.03        
2791     2792     2992     0.03        
2792     2993     2992     0.03        
2792     2793     2994     0.03        
2792     2994     2993     0.03        
2793     2794     2994     0.03        
2794     2995     2994     0.03        
2794     2795     2996     0.03        
2794     2996     2995     0.03        
2795     2796     2996     0.03        
2796     2997     2996     0.03        
2796     2797     2998     0.03        
2796     2998     2997     0.03        
2797     2798     2998     0.03        
2798     2999     2998     0.03        
2798     2799     3000     0.03        
2798     3000     2999     0.03        
2799     2800     3000     0.03        
2800     3001     3000     0.03        
2800     2801     3002     0.03        
2800     3002     3001     0.03        
2801     2802     3002     0.03        
2802     3003     3002     0.03        
2802     2803     3004     0.03        
2802     3004     3003     0.03        
2803     2804     3004     0.03        
2804     3005     3004     0.03        
2804     2805     3006     0.03        
2804     3006     3005     0.03        
2805     2806     3006     0.03        
2806     3007     3006     0.03        
2806     2807     3008     0.03        
2806     3008     3007     0.03        
2807     2808     3008     0.03        
2808     3009     3008     0.03        
2808     2809     3010     0.03        
2808     3010     3009     0.03        
2809     2810     3010     0.03        
2810     3011     3010     0.03        
2810     2811     3012     0.03        
2810     3012     3011     0.03        
2811     2812     3012     0.03        
2812     3013     3012     0.03        
2812     2813     3014     0.03        
2812     3014     3013     0.03        
2814     2815     3016     0.03        
2814     3016     3015     0.03        
2815     2816     3016     0.03        
2816     3017     3016     0.03        
2816     2817     3018     0.03        
2816     3018     3017     0.03        
2817     2818     3018     0.03        
2818     3019     3018     0.03        
2818     2819     3020     0.03        
2818     3020     3019     0.03        
2819     2820     3020     0.03        
2820     3021     3020     0.03        
2820     2821     3022     0.03        
2820     3022     3021     0.03        
2821     2822     3022     0.03        
2822     3023     3022     0.03        
2822     2823     3024     0.03        
2822     3024     3023     0.03        
2823     2824     3024     0.03        
2824     3025     3024     0.03        
2824     2825     3026     0.03        
2824     3026     3025     0.03        
2825     2826     3026     0.03        
2826     3027     3026     0.03        
2826     2827     3028     0.03        
2826     3028     3027     0.03        
2827     2828     3028     0.03        
2828     3029     3028     0.03        
2828     2829     3030     0.03        
2828     3030     3029     0.03        
2829     2830     3030     0.03        
2830     3031     3030     0.03        
2830     2831     3032     0.03        
2830     3032     3031     0.03        
2831     2832     3032     0.03        
2832     3033     3032     0.03        
2832     2833     3034     0.03        
2832     3034     3033     0.03        
2833     2834     3034     0.03        
2834     3035     3034     0.03        
2834     2835     3036     0.03        
2834     3036     3035     0.03        
2835     2836     3036     0.03        
2836     3037     3036     0.03        
2836     2837     3038     0.03        
2836     3038     3037     0.03        
2837     2838     3038     0.03        
2838     3039     3038     0.03        
2838     2839     3040     0.03        
2838     3040     3039     0.03        
2839     2840     3040     0.03        
2840     3041     3040     0.03        
2840     2841     3042     0.03        
2840     3042     3041     0.03        
2841     2842     3042     0.03        
2842     3043     3042     0.03        
2842     2843     3044     0.03        
2842     3044     3043     0.03        
2843     2844     3044     0.03        
2844     3045     3044     0.03        
2844     2845     3046     0.03        
2844     3046     3045     0.03        
2845     2846     3046     0.03        
2846     3047     3046     0.03        
2846     2847     3048     0.03        
2846     3048     3047     0.03        
2847     2848     3048     0.03        
2848     3049     3048     0.03        
2848     2849     3050     0.03        
2848     3050     3049     0.03        
2849     2850     3050     0.03        
2850     3051     3050     0.03        
2850     2851     3052     0.03        
2850     3052     3051     0.03        
2851     2852     3052     0.03        
2852     3053     3052     0.03        
2852     2853     3054     0.03        
2852     3054     3053     0.03        
2853     2854     3054     0.03        
2854     3055     3054     0.03        
2854     2855     3056     0.03        
2854     3056     3055     0.03        
2855     2856     3056     0.03        
2856     3057     3056     0.03        
2856     2857     3058     0.03        
2856     3058     3057     0.03        
2857     2858     3058     0.03        
2858     3059     3058     0.03        
2858     2859     3060     0.03        
2858     3060     3059     0.03        
2859     2860     3060     0.03        
2860     3061     3060     0.03        
2860     2861     3062     0.03        
2860     3062     3061     0.03        
2861     2862     3062     0.03        
2862     3063     3062     0.03        
2862     2863     3064     0.03        
2862     3064     3063     0.03        
2863     2864     3064     0.03        
2864     3065     3064     0.03        
2864     2865     3066     0.03        
2864     3066     3065     0.03        
2865     2866     3066     0.03        
2866     3067     3066     0.03        
2866     2867     3068     0.03        
2866     3068     3067     0.03        
2867     2868     3068     0.03        
2868     3069     3068     0.03        
2868     2869     3070     0.03        
2868     3070     3069     0.03        
2869     2870     3070     0.03        
2870     3071     3070     0.03        
2870     2871     3072     0.03        
2870     3072     3071     0.03        
2871     2872     3072     0.03        
2872     3073     3072     0.03        
2872     2873     3074     0.03        
2872     3074     3073     0.03        
2873     2874     3074     0.03        
2874     3075     3074     0.03        
2874     2875     3076     0.03        
2874     3076     3075     0.03        
2875     2876     3076     0.03        
2876     3077     3076     0.03        
2876     2877     3078     0.03        
2876     3078     3077     0.03        
2877     2878     3078     0.03        
2878     3079     3078     0.03        
2878     2879     3080     0.03        
2878     3080     3079     0.03        
2879     2880     3080     0.03        
2880     3081     3080     0.03        
2880     2881     3082     0.03        
2880     3082     3081     0.03        
2881     2882     3082     0.03        
2882     3083     3082     0.03        
2882     2883     3084     0.03        
2882     3084     3083     0.03        
2883     2884     3084     0.03        
2884     3085     3084     0.03        
2884     2885     3086     0.03        
2884     3086     3085     0.03        
2885     2886     3086     0.03        
2886     3087     3086     0.03        
2886     2887     3088     0.03        
2886     3088     3087     0.03        
2887     2888     3088     0.03        
2888     3089     3088     0.03        
2888     2889     3090     0.03        
2888     3090     3089     0.03        
2889     2890     3090     0.03        
2890     3091     3090     0.03        
2890     2891     3092     0.03        
2890     3092     3091     0.03        
2891     2892     3092     0.03        
2892     3093     3092     0.03        
2892     2893     3094     0.03        
2892     3094     3093     0.03        
2893     2894     3094     0.03        
2894     3095     3094     0.03        
2894     2895     3096     0.03        
2894     3096     3095     0.03        
2895     2896     3096     0.03        
2896     3097     3096     0.03        
2896     2897     3098     0.03        
2896     3098     3097     0.03        
2897     2898     3098     0.03        
2898     3099     3098     0.03        
2898     2899     3100     0.03        
2898     3100     3099     0.03        
2899     2900     3100     0.03        
2900     3101     3100     0.03        
2900     2901     3102     0.03        
2900     3102     3101     0.03        
2901     2902     3102     0.03        
2902     3103     3102     0.03        
2902     2903     3104     0.03        
2902     3104     3103     0.03        
2903     2904     3104     0.03        
2904     3105     3104     0.03        
2904     2905     3106     0.03        
2904     3106     3105     0.03        
2905     2906     3106     0.03        
2906     3107     3106     0.03        
2906     2907     3108     0.03        
2906     3108     3107     0.03        
2907     2908     3108     0.03        
2908     3109     3108     0.03        
2908     2909     3110     0.03        
2908     3110     3109     0.03        
2909     2910     3110     0.03        
2910     3111     3110     0.03        
2910     2911     3112     0.03        
2910     3112     3111     0.03        
2911     2912     3112     0.03        
2912     3113     3112     0.03        
2912     2913     3114     0.03        
2912     3114     3113     0.03        
2913     2914     3114     0.03        
2914     3115     3114     0.03        
2914     2915     3116     0.03        
2914     3116     3115     0.03        
2915     2916     3116     0.03        
2916     3117     3116     0.03        
2916     2917     3118     0.03        
2916     3118     3117     0.03        
2917     2918     3118     0.03        
2918     3119     3118     0.03        
2918     2919     3120     0.03        
2918     3120     3119     0.03        
2919     2920     3120     0.03        
2920     3121     3120     0.03        
2920     2921     3122     0.03        
2920     3122     3121     0.03        
2921     2922     3122     0.03        
2922     3123     3122     0.03        
2922     2923     3124     0.03        
2922     3124     3123     0.03        
2923     2924     3124     0.03        
2924     3125     3124     0.03        
2924     2925     3126     0.03        
2924     3126     3125     0.03        
2925     2926     3126     0.03        
2926     3127     3126     0.03        
2926     2927     3128     0.03        
2926     3128     3127     0.03        
2927     2928     3128     0.03        
2928     3129     3128     0.03        
2928     2929     3130     0.03        
2928     3130     3129     0.03        
2929     2930     3130     0.03        
2930     3131     3130     0.03        
2930     2931     3132     0.03        
2930     3132     3131     0.03        
2931     2932     3132     0.03        
2932     3133     3132     0.03        
2932     2933     3134     0.03        
2932     3134     3133     0.03        
2933     2934     3134     0.03        
2934     3135     3134     0.03        
2934     2935     3136     0.03        
2934     3136     3135     0.03        
2935     2936     3136     0.03        
2936     3137     3136     0.03        
2936     2937     3138     0.03        
2936     3138     3137     0.03        
2937     2938     3138     0.03        
2938     3139     3138     0.03        
2938     2939     3140     0.03        
2938     3140     3139     0.03        
2939     2940     3140     0.03        
2940     3141     3140     0.03        
2940     2941     3142     0.03        
2940     3142     3141     0.03        
2941     2942     3142     0.03        
2942     3143     3142     0.03        
2942     2943     3144     0.03        
2942     3144     3143     0.03        
2943     2944     3144     0.03        
2944     3145     3144     0.03        
2944     2945     3146     0.03        
2944     3146     3145     0.03        
2945     2946     3146     0.03        
2946     3147     3146     0.03        
2946     2947     3148     0.03        
2946     3148     3147     0.03        
2947     2948     3148     0.03        
2948     3149     3148     0.03        
2948     2949     3150     0.03        
2948     3150     3149     0.03        
2949     2950     3150     0.03        
2950     3151     3150     0.03        
2950     2951     3152     0.03        
2950     3152     3151     0.03        
2951     2952     3152     0.03        
2952     3153     3152     0.03        
2952     2953     3154     0.03        
2952     3154     3153     0.03        
2953     2954     3154     0.03        
2954     3155     3154     0.03        
2954     2955     3156     0.03        
2954     3156     3155     0.03        
2955     2956     3156     0.03        
2956     3157     3156     0.03        
2956     2957     3158     0.03        
2956     3158     3157     0.03        
2957     2958     3158     0.03        
2958     3159     3158     0.03        
2958     2959     3160     0.03        
2958     3160     3159     0.03        
2959     2960     3160     0.03        
2960     3161     3160     0.03        
2960     2961     3162     0.03        
2960     3162     3161     0.03        
2961     2962     3162     0.03        
2962     3163     3162     0.03        
2962     2963     3164     0.03        
2962     3164     3163     0.03        
2963     2964     3164     0.03        
2964     3165     3164     0.03        
2964     2965     3166     0.03        
2964     3166     3165     0.03        
2965     2966     3166     0.03        
2966     3167     3166     0.03        
2966     2967     3168     0.03        
2966     3168     3167     0.03        
2967     2968     3168     0.03        
2968     3169     3168     0.03        
2968     2969     3170     0.03        
2968     3170     3169     0.03        
2969     2970     3170     0.03        
2970     3171     3170     0.03        
2970     2971     3172     0.03        
2970     3172     3171     0.03        
2971     2972     3172     0.03        
2972     3173     3172     0.03        
2972     2973     3174     0.03        
2972     3174     3173     0.03        
2973     2974     3174     0.03        
2974     3175     3174     0.03        
2974     2975     3176     0.03        
2974     3176     3175     0.03        
2975     2976     3176     0.03        
2976     3177     3176     0.03        
2976     2977     3178     0.03        
2976     3178     3177     0.03        
2977     2978     3178     0.03        
2978     3179     3178     0.03        
2978     2979     3180     0.03        
2978     3180     3179     0.03        
2979     2980     3180     0.03        
2980     3181     3180     0.03        
2980     2981     3182     0.03        
2980     3182     3181     0.03        
2981     2982     3182     0.03        
2982     3183     3182     0.03        
2982     2983     3184     0.03        
2982     3184     3183     0.03        
2983     2984     3184     0.03        
2984     3185     3184     0.03        
2984     2985     3186     0.03        
2984     3186     3185     0.03        
2985     2986     3186     0.03        
2986     3187     3186     0.03        
2986     2987     3188     0.03        
2986     3188     3187     0.03        
2987     2988     3188     0.03        
2988     3189     3188     0.03        
2988     2989     3190     0.03        
2988     3190     3189     0.03        
2989     2990     3190     0.03        
2990     3191     3190     0.03        
2990     2991     3192     0.03        
2990     3192     3191     0.03        
2991     2992     3192     0.03        
2992     3193     3192     0.03        
2992     2993     3194     0.03        
2992     3194     3193     0.03        
2993     2994     3194     0.03        
2994     3195     3194     0.03        
2994     2995     3196     0.03        
2994     3196     3195     0.03        
2995     2996     3196     0.03        
2996     3197     3196     0.03        
2996     2997     3198     0.03        
2996     3198     3197     0.03        
2997     2998     3198     0.03        
2998     3199     3198     0.03        
2998     2999     3200     0.03        
2998     3200     3199     0.03        
2999     3000     3200     0.03        
3000     3201     3200     0.03        
3000     3001     3202     0.03        
3000     3202     3201     0.03        
3001     3002     3202     0.03        
3002     3203     3202     0.03        
3002     3003     3204     0.03        
3002     3204     3203     0.03        
3003     3004     3204     0.03        
3004     3205     3204     0.03        
3004     3005     3206     0.03        
3004     3206     3205     0.03        
3005     3006     3206     0.03        
3006     3207     3206     0.03        
3006     3007     3208     0.03        
3006     3208     3207     0.03        
3007     3008     3208     0.03        
3008     3209     3208     0.03        
3008     3009     3210     0.03        
3008     3210     3209     0.03        
3009     3010     3210     0.03        
3010     3211     3210     0.03        
3010     3011     3212     0.03        
3010     3212     3211     0.03        
3011     3012     3212     0.03        
3012     3213     3212     0.03        
3012     3013     3214     0.03        
3012     3214     3213     0.03        
3013     3014     3214     0.03        
3014     3215     3214     0.03        
3015     3016     3216     0.03        
3016     3217     3216     0.03        
3016     3017     3218     0.03        
3016     3218     3217     0.03        
3017     3018     3218     0.03        
3018     3219     3218     0.03        
3018     3019     3220     0.03        
3018     3220     3219     0.03        
3019     3020     3220     0.03        
3020     3221     3220     0.03        
3020     3021     3222     0.03        
3020     3222     3221     0.03        
3021     3022     3222     0.03        
3022     3223     3222     0.03        
3022     3023     3224     0.03        
3022     3224     3223     0.03        
3023     3024     3224     0.03        
3024     3225     3224     0.03        
3024     3025     3226     0.03        
3024     3226     3225     0.03        
3025     3026     3226     0.03        
3026     3227     3226     0.03        
3026     3027     3228     0.03        
3026     3228     3227     0.03        
3027     3028     3228     0.03        
3028     3229     3228     0.03        
3028     3029     3230     0.03        
3028     3230     3229     0.03        
3029     3030     3230     0.03        
3030     3231     3230     0.03        
3030     3031     3232     0.03        
3030     3232     3231     0.03        
3031     3032     3232     0.03        
3032     3233     3232     0.03        
3032     3033     3234     0.03        
3032     3234     3233     0.03        
3033     3034     3234     0.03        
3034     3235     3234     0.03        
3034     3035     3236     0.03        
3034     3236     3235     0.03        
3035     3036     3236     0.03        
3036     3237     3236     0.03        
3036     3037     3238     0.03        
3036     3238     3237     0.03        
3037     3038     3238     0.03        
3038     3239     3238     0.03        
3038     3039     3240     0.03        
3038     3240     3239     0.03        
3039     3040     3240     0.03        
3040     3241     3240     0.03        
3040     3041     3242     0.03        
3040     3242     3241     0.03        
3041     3042     3242     0.03        
3042     3243     3242     0.03        
3042     3043     3244     0.03        
3042     3244     3243     0.03        
3043     3044     3244     0.03        
3044     3245     3244     0.03        
3044     3045     3246     0.03        
3044     3246     3245     0.03        
3045     3046     3246     0.03        
3046     3247     3246     0.03        
3046     3047     3248     0.03        
3046     3248     3247     0.03        
3047     3048     3248     0.03        
3048     3249     3248     0.03        
3048     3049     3250     0.03        
3048     3250     3249     0.03        
3049     3050     3250     0.03        
3050     3251     3250     0.03        
3050     3051     3252     0.03        
3050     3252     3251     0.03        
3051     3052     3252     0.03        
3052     3253     3252     0.03        
3052     3053     3254     0.03        
3052     3254     3253     0.03        
3053     3054     3254     0.03        
3054     3255     3254     0.03        
3054     3055     3256     0.03        
3054     3256     3255     0.03        
3055     3056     3256     0.03        
3056     3257     3256     0.03        
3056     3057     3258     0.03        
3056     3258     3257     0.03        
3057     3058     3258     0.03        
3058     3259     3258     0.03        
3058     3059     3260     0.03        
3058     3260     3259     0.03        
3059     3060     3260     0.03        
3060     3261     3260     0.03        
3060     3061     3262     0.03        
3060     3262     3261     0.03        
3061     3062     3262     0.03        
3062     3263     3262     0.03        
3062     3063     3264     0.03        
3062     3264     3263     0.03        
3063     3064     3264     0.03        
3064     3265     3264     0.03        
3064     3065     3266     0.03        
3064     3266     3265     0.03        
3065     3066     3266     0.03        
3066     3267     3266     0.03        
3066     3067     3268     0.03        
3066     3268     3267     0.03        
3067     3068     3268     0.03        
3068     3269     3268     0.03        
3068     3069     3270     0.03        
3068     3270     3269     0.03        
3069     3070     3270     0.03        
3070     3271     3270     0.03        
3070     3071     3272     0.03        
3070     3272     3271     0.03        
3071     3072     3272     0.03        
3072     3273     3272     0.03        
3072     3073     3274     0.03        
3072     3274     3273     0.03        
3073     3074     3274     0.03        
3074     3275     3274     0.03        
3074     3075     3276     0.03        
3074     3276     3275     0.03        
3075     3076     3276     0.03        
3076     3277     3276     0.03        
3076     3077     3278     0.03        
3076     3278     3277     0.03        
3077     3078     3278     0.03        
3078     3279     3278     0.03        
3078     3079     3280     0.03        
3078     3280     3279     0.03        
3079     3080     3280     0.03        
3080     3281     3280     0.03        
3080     3081     3282     0.03        
3080     3282     3281     0.03        
3081     3082     3282     0.03        
3082     3283     3282     0.03        
3082     3083     3284     0.03        
3082     3284     3283     0.03        
3083     3084     3284     0.03        
3084     3285     3284     0.03        
3084     3085     3286     0.03        
3084     3286     3285     0.03        
3085     3086     3286     0.03        
3086     3287     3286     0.03        
3086     3087     3288     0.03        
3086     3288     3287     0.03        
3087     3088     3288     0.03        
3088     3289     3288     0.03        
3088     3089     3290     0.03        
3088     3290     3289     0.03        
3089     3090     3290     0.03        
3090     3291     3290     0.03        
3090     3091     3292     0.03        
3090     3292     3291     0.03        
3091     3092     3292     0.03        
3092     3293     3292     0.03        
3092     3093     3294     0.03        
3092     3294     3293     0.03        
3093     3094     3294     0.03        
3094     3295     3294     0.03        
3094     3095     3296     0.03        
3094     3296     3295     0.03        
3095     3096     3296     0.03        
3096     3297     3296     0.03        
3096     3097     3298     0.03        
3096     3298     3297     0.03        
3097     3098     3298     0.03        
3098     3299     3298     0.03        
3098     3099     3300     0.03        
3098     3300     3299     0.03        
3099     3100     3300     0.03        
3100     3301     3300     0.03        
3100     3101     3302     0.03        
3100     3302     3301     0.03        
3101     3102     3302     0.03        
3102     3303     3302     0.03        
3102     3103     3304     0.03        
3102     3304     3303     0.03        
3103     3104     3304     0.03        
3104     3305     3304     0.03        
3104     3105     3306     0.03        
3104     3306     3305     0.03        
3105     3106     3306     0.03        
3106     3307     3306     0.03        
3106     3107     3308     0.03        
3106     3308     3307     0.03        
3107     3108     3308     0.03        
3108     3309     3308     0.03        
3108     3109     3310     0.03        
3108     3310     3309     0.03        
3109     3110     3310     0.03        
3110     3311     3310     0.03        
3110     3111     3312     0.03        
3110     3312     3311     0.03        
3111     3112     3312     0.03        
3112     3313     3312     0.03        
3112     3113     3314     0.03        
3112     3314     3313     0.03        
3113     3114     3314     0.03        
3114     3315     3314     0.03        
3114     3115     3316     0.03        
3114     3316     3315     0.03        
3115     3116     3316     0.03        
3116     3317     3316     0.03        
3116     3117     3318     0.03        
3116     3318     3317     0.03        
3117     3118     3318     0.03        
3118     3319     3318     0.03        
3118     3119     3320     0.03        
3118     3320     3319     0.03        
3119     3120     3320     0.03        
3120     3321     3320     0.03        
3120     3121     3322     0.03        
3120     3322     3321     0.03        
3121     3122     3322     0.03        
3122     3323     3322     0.03        
3122     3123     3324     0.03        
3122     3324     3323     0.03        
3123     3124     3324     0.03        
3124     3325     3324     0.03        
3124     3125     3326     0.03        
3124     3326     3325     0.03        
3125     3126     3326     0.03        
3126     3327     3326     0.03        
3126     3127     3328     0.03        
3126     3328     3327     0.03        
3127     3128     3328     0.03        
3128     3329     3328     0.03        
3128     3129     3330     0.03        
3128     3330     3329     0.03        
3129     3130     3330     0.03        
3130     3331     3330     0.03        
3130     3131     3332     0.03        
3130     3332     3331     0.03        
3131     3132     3332     0.03        
3132     3333     3332     0.03        
3132     3133     3334     0.03        
3132     3334     3333     0.03        
3133     3134     3334     0.03        
3134     3335     3334     0.03        
3134     3135     3336     0.03        
3134     3336     3335     0.03        
3135     3136     3336     0.03        
3136     3337     3336     0.03        
3136     3137     3338     0.03        
3136     3338     3337     0.03        
3137     3138     3338     0.03        
3138     3339     3338     0.03        
3138     3139     3340     0.03        
3138     3340     3339     0.03        
3139     3140     3340     0.03        
3140     3341     3340     0.03        
3140     3141     3342     0.03        
3140     3342     3341     0.03        
3141     3142     3342     0.03        
3142     3343     3342     0.03        
3142     3143     3344     0.03        
3142     3344     3343     0.03        
3143     3144     3344     0.03        
3144     3345     3344     0.03        
3144     3145     3346     0.03        
3144     3346     3345     0.03        
3145     3146     3346     0.03        
3146     3347     3346     0.03        
3146     3147     3348     0.03        
3146     3348     3347     0.03        
3147     3148     3348     0.03        
3148     3349     3348     0.03        
3148     3149     3350     0.03        
3148     3350     3349     0.03        
3149     3150     3350     0.03        
3150     3351     3350     0.03        
3150     3151     3352     0.03        
3150     3352     3351     0.03        
3151     3152     3352     0.03        
3152     3353     3352     0.03        
3152     3153     3354     0.03        
3152     3354     3353     0.03        
3153     3154     3354     0.03        
3154     3355     3354     0.03        
3154     3155     3356     0.03        
3154     3356     3355     0.03        
3155     3156     3356     0.03        
3156     3357     3356     0.03        
3156     3157     3358     0.03        
3156     3358     3357     0.03        
3157     3158     3358     0.03        
3158     3359     3358     0.03        
3158     3159     3360     0.03        
3158     3360     3359     0.03        
3159     3160     3360     0.03        
3160     3361     3360     0.03        
3160     3161     3362     0.03        
3160     3362     3361     0.03        
3161     3162     3362     0.03        
3162     3363     3362     0.03        
3162     3163     3364     0.03        
3162     3364     3363     0.03        
3163     3164     3364     0.03        
3164     3365     3364     0.03        
3164     3165     3366     0.03        
3164     3366     3365     0.03        
3165     3166     3366     0.03        
3166     3367     3366     0.03        
3166     3167     3368     0.03        
3166     3368     3367     0.03        
3167     3168     3368     0.03        
3168     3369     3368     0.03        
3168     3169     3370     0.03        
3168     3370     3369     0.03        
3169     3170     3370     0.03        
3170     3371     3370     0.03        
3170     3171     3372     0.03        
3170     3372     3371     0.03        
3171     3172     3372     0.03        
3172     3373     3372     0.03        
3172     3173     3374     0.03        
3172     3374     3373     0.03        
3173     3174     3374     0.03        
3174     3375     3374     0.03        
3174     3175     3376     0.03        
3174     3376     3375     0.03        
3175     3176     3376     0.03        
3176     3377     3376     0.03        
3176     3177     3378     0.03        
3176     3378     3377     0.03        
3177     3178     3378     0.03        
3178     3379     3378     0.03        
3178     3179     3380     0.03        
3178     3380     3379     0.03        
3179     3180     3380     0.03        
3180     3381     3380     0.03        
3180     3181     3382     0.03        
3180     3382     3381     0.03        
3181     3182     3382     0.03        
3182     3383     3382     0.03        
3182     3183     3384     0.03        
3182     3384     3383     0.03        
3183     3184     3384     0.03        
3184     3385     3384     0.03        
3184     3185     3386     0.03        
3184     3386     3385     0.03        
3185     3186     3386     0.03        
3186     3387     3386     0.03        
3186     3187     3388     0.03        
3186     3388     3387     0.03        
3187     3188     3388     0.03        
3188     3389     3388     0.03        
3188     3189     3390     0.03        
3188     3390     3389     0.03        
3189     3190     3390     0.03        
3190     3391     3390     0.03        
3190     3191     3392     0.03        
3190     3392     3391     0.03        
3191     3192     3392     0.03        
3192     3393     3392     0.03        
3192     3193     3394     0.03        
3192     3394     3393     0.03        
3193     3194     3394     0.03        
3194     3395     3394     0.03        
3194     3195     3396     0.03        
3194     3396     3395     0.03        
3195     3196     3396     0.03        
3196     3397     3396     0.03        
3196     3197     3398     0.03        
3196     3398     3397     0.03        
3197     3198     3398     0.03        
3198     3399     3398     0.03        
3198     3199     3400     0.03        
3198     3400     3399     0.03        
3199     3200     3400     0.03        
3200     3401     3400     0.03        
3200     3201     3402     0.03        
3200     3402     3401     0.03        
3201     3202     3402     0.03        
3202     3403     3402     0.03        
3202     3203     3404     0.03        
3202     3404     3403     0.03        
3203     3204     3404     0.03        
3204     3405     3404     0.03        
3204     3205     3406     0.03        
3204     3406     3405     0.03        
3205     3206     3406     0.03        
3206     3407     3406     0.03        
3206     3207     3408     0.03        
3206     3408     3407     0.03        
3207     3208     3408     0.03        
3208     3409     3408     0.03        
3208     3209     3410     0.03        
3208     3410     3409     0.03        
3209     3210     3410     0.03        
3210     3411     3410     0.03        
3210     3211     3412     0.03        
3210     3412     3411     0.03        
3211     3212     3412     0.03        
3212     3413     3412     0.03        
3212     3213     3414     0.03        
3212     3414     3413     0.03        
3213     3214     3414     0.03        
3214     3415     3414     0.03        
3214     3215     3416     0.03        
3214     3416     3415     0.03        
3216     3217     3418     0.03        
3216     3418     3417     0.03        
3217     3218     3418     0.03        
3218     3419     3418     0.03        
3218     3219     3420     0.03        
3218     3420     3419     0.03        
3219     3220     3420     0.03        
3220     3421     3420     0.03        
3220     3221     3422     0.03        
3220     3422     3421     0.03        
3221     3222     3422     0.03        
3222     3423     3422     0.03        
3222     3223     3424     0.03        
3222     3424     3423     0.03        
3223     3224     3424     0.03        
3224     3425     3424     0.03        
3224     3225     3426     0.03        
3224     3426     3425     0.03        
3225     3226     3426     0.03        
3226     3427     3426     0.03        
3226     3227     3428     0.03        
3226     3428     3427     0.03        
3227     3228     3428     0.03        
3228     3429     3428     0.03        
3228     3229     3430     0.03        
3228     3430     3429     0.03        
3229     3230     3430     0.03        
3230     3431     3430     0.03        
3230     3231     3432     0.03        
3230     3432     3431     0.03        
3231     3232     3432     0.03        
3232     3433     3432     0.03        
3232     3233     3434     0.03        
3232     3434     3433     0.03        
3233     3234     3434     0.03        
3234     3435     3434     0.03        
3234     3235     3436     0.03        
3234     3436     3435     0.03        
3235     3236     3436     0.03        
3236     3437     3436     0.03        
3236     3237     3438     0.03        
3236     3438     3437     0.03        
3237     3238     3438     0.03        
3238     3439     3438     0.03        
3238     3239     3440     0.03        
3238     3440     3439     0.03        
3239     3240     3440     0.03        
3240     3441     3440     0.03        
3240     3241     3442     0.03        
3240     3442     3441     0.03        
3241     3242     3442     0.03        
3242     3443     3442     0.03        
3242     3243     3444     0.03        
3242     3444     3443     0.03        
3243     3244     3444     0.03        
3244     3445     3444     0.03        
3244     3245     3446     0.03        
3244     3446     3445     0.03        
3245     3246     3446     0.03        
3246     3447     3446     0.03        
3246     3247     3448     0.03        
3246     3448     3447     0.03        
3247     3248     3448     0.03        
3248     3449     3448     0.03        
3248     3249     3450     0.03        
3248     3450     3449     0.03        
3249     3250     3450     0.03        
3250     3451     3450     0.03        
3250     3251     3452     0.03        
3250     3452     3451     0.03        
3251     3252     3452     0.03        
3252     3453     3452     0.03        
3252     3253     3454     0.03        
3252     3454     3453     0.03        
3253     3254     3454     0.03        
3254     3455     3454     0.03        
3254     3255     3456     0.03        
3254     3456     3455     0.03        
3255     3256     3456     0.03        
3256     3457     3456     0.03        
3256     3257     3458     0.03        
3256     3458     3457     0.03        
3257     3258     3458     0.03        
3258     3459     3458     0.03        
3258     3259     3460     0.03        
3258     3460     3459     0.03        
3259     3260     3460     0.03        
3260     3461     3460     0.03        
3260     3261     3462     0.03        
3260     3462     3461     0.03        
3261     3262     3462     0.03        
3262     3463     3462     0.03        
3262     3263     3464     0.03        
3262     3464     3463     0.03        
3263     3264     3464     0.03        
3264     3465     3464     0.03        
3264     3265     3466     0.03        
3264     3466     3465     0.03        
3265     3266     3466     0.03        
3266     3467     3466     0.03        
3266     3267     3468     0.03        
3266     3468     3467     0.03        
3267     3268     3468     0.03        
3268     3469     3468     0.03        
3268     3269     3470     0.03        
3268     3470     3469     0.03        
3269     3270     3470     0.03        
3270     3471     3470     0.03        
3270     3271     3472     0.03        
3270     3472     3471     0.03        
3271     3272     3472     0.03        
3272     3473     3472     0.03        
3272     3273     3474     0.03        
3272     3474     3473     0.03        
3273     3274     3474     0.03        
3274     3475     3474     0.03        
3274     3275     3476     0.03        
3274     3476     3475     0.03        
3275     3276     3476     0.03        
3276     3477     3476     0.03        
3276     3277     3478     0.03        
3276     3478     3477     0.03        
3277     3278     3478     0.03        
3278     3479     3478     0.03        
3278     3279     3480     0.03        
3278     3480     3479     0.03        
3279     3280     3480     0.03        
3280     3481     3480     0.03        
3280     3281     3482     0.03        
3280     3482     3481     0.03        
3281     3282     3482     0.03        
3282     3483     3482     0.03        
3282     3283     3484     0.03        
3282     3484     3483     0.03        
3283     3284     3484     0.03        
3284     3485     3484     0.03        
3284     3285     3486     0.03        
3284     3486     3485     0.03        
3285     3286     3486     0.03        
3286     3487     3486     0.03        
3286     3287     3488     0.03        
3286     3488     3487     0.03        
3287     3288     3488     0.03        
3288     3489     3488     0.03        
3288     3289     3490     0.03        
3288     3490     3489     0.03        
3289     3290     3490     0.03        
3290     3491     3490     0.03        
3290     3291     3492     0.03        
3290     3492     3491     0.03        
3291     3292     3492     0.03        
3292     3493     3492     0.03        
3292     3293     3494     0.03        
3292     3494     3493     0.03        
3293     3294     3494     0.03        
3294     3495     3494     0.03        
3294     3295     3496     0.03        
3294     3496     3495     0.03        
3295     3296     3496     0.03        
3296     3497     3496     0.03        
3296     3297     3498     0.03        
3296     3498     3497     0.03        
3297     3298     3498     0.03        
3298     3499     3498     0.03        
3298     3299     3500     0.03        
3298     3500     3499     0.03        
3299     3300     3500     0.03        
3300     3501     3500     0.03        
3300     3301     3502     0.03        
3300     3502     3501     0.03        
3301     3302     3502     0.03        
3302     3503     3502     0.03        
3302     3303     3504     0.03        
3302     3504     3503     0.03        
3303     3304     3504     0.03        
3304     3505     3504     0.03        
3304     3305     3506     0.03        
3304     3506     3505     0.03        
3305     3306     3506     0.03        
3306     3507     3506     0.03        
3306     3307     3508     0.03        
3306     3508     3507     0.03        
3307     3308     3508     0.03        
3308     3509     3508     0.03        
3308     3309     3510     0.03        
3308     3510     3509     0.03        
3309     3310     3510     0.03        
3310     3511     3510     0.03        
3310     3311     3512     0.03        
3310     3512     3511     0.03        
3311     3312     3512     0.03        
3312     3513     3512     0.03        
3312     3313     3514     0.03        
3312     3514     3513     0.03        
3313     3314     3514     0.03        
3314     3515     3514     0.03        
3314     3315     3516     0.03        
3314     3516     3515     0.03        
3315     3316     3516     0.03        
3316     3517     3516     0.03        
3316     3317     3518     0.03        
3316     3518     3517     0.03        
3317     3318     3518     0.03        
3318     3519     3518     0.03        
3318     3319     3520     0.03        
3318     3520     3519     0.03        
3319     3320     3520     0.03        
3320     3521     3520     0.03        
3320     3321     3522     0.03        
3320     3522     3521     0.03        
3321     3322     3522     0.03        
3322     3523     3522     0.03        
3322     3323     3524     0.03        
3322     3524     3523     0.03        
3323     3324     3524     0.03        
3324     3525     3524     0.03        
3324     3325     3526     0.03        
3324     3526     3525     0.03        
3325     3326     3526     0.03        
3326     3527     3526     0.03        
3326     3327     3528     0.03        
3326     3528     3527     0.03        
3327     3328     3528     0.03        
3328     3529     3528     0.03        
3328     3329     3530     0.03        
3328     3530     3529     0.03        
3329     3330     3530     0.03        
3330     3531     3530     0.03        
3330     3331     3532     0.03        
3330     3532     3531     0.03        
3331     3332     3532     0.03        
3332     3533     3532     0.03        
3332     3333     3534     0.03        
3332     3534     3533     0.03        
3333     3334     3534     0.03        
3334     3535     3534     0.03        
3334     3335     3536     0.03        
3334     3536     3535     0.03        
3335     3336     3536     0.03        
3336     3537     3536     0.03        
3336     3337     3538     0.03        
3336     3538     3537     0.03        
3337     3338     3538     0.03        
3338     3539     3538     0.03        
3338     3339     3540     0.03        
3338     3540     3539     0.03        
3339     3340     3540     0.03        
3340     3541     3540     0.03        
3340     3341     3542     0.03        
3340     3542     3541     0.03        
3341     3342     3542     0.03        
3342     3543     3542     0.03        
3342     3343     3544     0.03        
3342     3544     3543     0.03        
3343     3344     3544     0.03        
3344     3545     3544     0.03        
3344     3345     3546     0.03        
3344     3546     3545     0.03        
3345     3346     3546     0.03        
3346     3547     3546     0.03        
3346     3347     3548     0.03        
3346     3548     3547     0.03        
3347     3348     3548     0.03        
3348     3549     3548     0.03        
3348     3349     3550     0.03        
3348     3550     3549     0.03        
3349     3350     3550     0.03        
3350     3551     3550     0.03        
3350     3351     3552     0.03        
3350     3552     3551     0.03        
3351     3352     3552     0.03        
3352     3553     3552     0.03        
3352     3353     3554     0.03        
3352     3554     3553     0.03        
3353     3354     3554     0.03        
3354     3555     3554     0.03        
3354     3355     3556     0.03        
3354     3556     3555     0.03        
3355     3356     3556     0.03        
3356     3557     3556     0.03        
3356     3357     3558     0.03        
3356     3558     3557     0.03        
3357     3358     3558     0.03        
3358     3559     3558     0.03        
3358     3359     3560     0.03        
3358     3560     3559     0.03        
3359     3360     3560     0.03        
3360     3561     3560     0.03        
3360     3361     3562     0.03        
3360     3562     3561     0.03        
3361     3362     3562     0.03        
3362     3563     3562     0.03        
3362     3363     3564     0.03        
3362     3564     3563     0.03        
3363     3364     3564     0.03        
3364     3565     3564     0.03        
3364     3365     3566     0.03        
3364     3566     3565     0.03        
3365     3366     3566     0.03        
3366     3567     3566     0.03        
3366     3367     3568     0.03        
3366     3568     3567     0.03        
3367     3368     3568     0.03        
3368     3569     3568     0.03        
3368     3369     3570     0.03        
3368     3570     3569     0.03        
3369     3370     3570     0.03        
3370     3571     3570     0.03        
3370     3371     3572     0.03        
3370     3572     3571     0.03        
3371     3372     3572     0.03        
3372     3573     3572     0.03        
3372     3373     3574     0.03        
3372     3574     3573     0.03        
3373     3374     3574     0.03        
3374     3575     3574     0.03        
3374     3375     3576     0.03        
3374     3576     3575     0.03        
3375     3376     3576     0.03        
3376     3577     3576     0.03        
3376     3377     3578     0.03        
3376     3578     3577     0.03        
3377     3378     3578     0.03        
3378     3579     3578     0.03        
3378     3379     3580     0.03        
3378     3580     3579     0.03        
3379     3380     3580     0.03        
3380     3581     3580     0.03        
3380     3381     3582     0.03        
3380     3582     3581     0.03        
3381     3382     3582     0.03        
3382     3583     3582     0.03        
3382     3383     3584     0.03        
3382     3584     3583     0.03        
3383     3384     3584     0.03        
3384     3585     3584     0.03        
3384     3385     3586     0.03        
3384     3586     3585     0.03        
3385     3386     3586     0.03        
3386     3587     3586     0.03        
3386     3387     3588     0.03        
3386     3588     3587     0.03        
3387     3388     3588     0.03        
3388     3589     3588     0.03        
3388     3389     3590     0.03        
3388     3590     3589     0.03        
3389     3390     3590     0.03        
3390     3591     3590     0.03        
3390     3391     3592     0.03        
3390     3592     3591     0.03        
3391     3392     3592     0.03        
3392     3593     3592     0.03        
3392     3393     3594     0.03        
3392     3594     3593     0.03        
3393     3394     3594     0.03        
3394     3595     3594     0.03        
3394     3395     3596     0.03        
3394     3596     3595     0.03        
3395     3396     3596     0.03        
3396     3597     3596     0.03        
3396     3397     3598     0.03        
3396     3598     3597     0.03        
3397     3398     3598     0.03        
3398     3599     3598     0.03        
3398     3399     3600     0.03        
3398     3600     3599     0.03        
3399     3400     3600     0.03        
3400     3601     3600     0.03        
3400     3401     3602     0.03        
3400     3602     3601     0.03        
3401     3402     3602     0.03        
3402     3603     3602     0.03        
3402     3403     3604     0.03        
3402     3604     3603     0.03        
3403     3404     3604     0.03        
3404     3605     3604     0.03        
3404     3405     3606     0.03        
3404     3606     3605     0.03        
3405     3406     3606     0.03        
3406     3607     3606     0.03        
3406     3407     3608     0.03        
3406     3608     3607     0.03        
3407     3408     3608     0.03        
3408     3609     3608     0.03        
3408     3409     3610     0.03        
3408     3610     3609     0.03        
3409     3410     3610     0.03        
3410     3611     3610     0.03        
3410     3411     3612     0.03        
3410     3612     3611     0.03        
3411     3412     3612     0.03        
3412     3613     3612     0.03        
3412     3413     3614     0.03        
3412     3614     3613     0.03        
3413     3414     3614     0.03        
3414     3615     3614     0.03        
3414     3415     3616     0.03        
3414     3616     3615     0.03        
3415     3416     3616     0.03        
3416     3617     3616     0.03        
3417     3418     3618     0.03        
3418     3619     3618     0.03        
3418     3419     3620     0.03        
3418     3620     3619     0.03        
3419     3420     3620     0.03        
3420     3621     3620     0.03        
3420     3421     3622     0.03        
3420     3622     3621     0.03        
3421     3422     3622     0.03        
3422     3623     3622     0.03        
3422     3423     3624     0.03        
3422     3624     3623     0.03        
3423     3424     3624     0.03        
3424     3625     3624     0.03        
3424     3425     3626     0.03        
3424     3626     3625     0.03        
3425     3426     3626     0.03        
3426     3627     3626     0.03        
3426     3427     3628     0.03        
3426     3628     3627     0.03        
3427     3428     3628     0.03        
3428     3629     3628     0.03        
3428     3429     3630     0.03        
3428     3630     3629     0.03        
3429     3430     3630     0.03        
3430     3631     3630     0.03        
3430     3431     3632     0.03        
3430     3632     3631     0.03        
3431     3432     3632     0.03        
3432     3633     3632     0.03        
3432     3433     3634     0.03        
3432     3634     3633     0.03        
3433     3434     3634     0.03        
3434     3635     3634     0.03        
3434     3435     3636     0.03        
3434     3636     3635     0.03        
3435     3436     3636     0.03        
3436     3637     3636     0.03        
3436     3437     3638     0.03        
3436     3638     3637     0.03        
3437     3438     3638     0.03        
3438     3639     3638     0.03        
3438     3439     3640     0.03        
3438     3640     3639     0.03        
3439     3440     3640     0.03        
3440     3641     3640     0.03        
3440     3441     3642     0.03        
3440     3642     3641     0.03        
3441     3442     3642     0.03        
3442     3643     3642     0.03        
3442     3443     3644     0.03        
3442     3644     3643     0.03        
3443     3444     3644     0.03        
3444     3645     3644     0.03        
3444     3445     3646     0.03        
3444     3646     3645     0.03        
3445     3446     3646     0.03        
3446     3647     3646     0.03        
3446     3447     3648     0.03        
3446     3648     3647     0.03        
3447     3448     3648     0.03        
3448     3649     3648     0.03        
3448     3449     3650     0.03        
3448     3650     3649     0.03        
3449     3450     3650     0.03        
3450     3651     3650     0.03        
3450     3451     3652     0.03        
3450     3652     3651     0.03        
3451     3452     3652     0.03        
3452     3653     3652     0.03        
3452     3453     3654     0.03        
3452     3654     3653     0.03        
3453     3454     3654     0.03        
3454     3655     3654     0.03        
3454     3455     3656     0.03        
3454     3656     3655     0.03        
3455     3456     3656     0.03        
3456     3657     3656     0.03        
3456     3457     3658     0.03        
3456     3658     3657     0.03        
3457     3458     3658     0.03        
3458     3659     3658     0.03        
3458     3459     3660     0.03        
3458     3660     3659     0.03        
3459     3460     3660     0.03        
3460     3661     3660     0.03        
3460     3461     3662     0.03        
3460     3662     3661     0.03        
3461     3462     3662     0.03        
3462     3663     3662     0.03        
3462     3463     3664     0.03        
3462     3664     3663     0.03        
3463     3464     3664     0.03        
3464     3665     3664     0.03        
3464     3465     3666     0.03        
3464     3666     3665     0.03        
3465     3466     3666     0.03        
3466     3667     3666     0.03        
3466     3467     3668     0.03        
3466     3668     3667     0.03        
3467     3468     3668     0.03        
3468     3669     3668     0.03        
3468     3469     3670     0.03        
3468     3670     3669     0.03        
3469     3470     3670     0.03        
3470     3671     3670     0.03        
3470     3471     3672     0.03        
3470     3672     3671     0.03        
3471     3472     3672     0.03        
3472     3673     3672     0.03        
3472     3473     3674     0.03        
3472     3674     3673     0.03        
3473     3474     3674     0.03        
3474     3675     3674     0.03        
3474     3475     3676     0.03        
3474     3676     3675     0.03        
3475     3476     3676     0.03        
3476     3677     3676     0.03        
3476     3477     3678     0.03        
3476     3678     3677     0.03        
3477     3478     3678     0.03        
3478     3679     3678     0.03        
3478     3479     3680     0.03        
3478     3680     3679     0.03        
3479     3480     3680     0.03        
3480     3681     3680     0.03        
3480     3481     3682     0.03        
3480     3682     3681     0.03        
3481     3482     3682     0.03        
3482     3683     3682     0.03        
3482     3483     3684     0.03        
3482     3684     3683     0.03        
3483     3484     3684     0.03        
3484     3685     3684     0.03        
3484     3485     3686     0.03        
3484     3686     3685     0.03        
3485     3486     3686     0.03        
3486     3687     3686     0.03        
3486     3487     3688     0.03        
3486     3688     3687     0.03        
3487     3488     3688     0.03        
3488     3689     3688     0.03        
3488     3489     3690     0.03        
3488     3690     3689     0.03        
3489     3490     3690     0.03        
3490     3691     3690     0.03        
3490     3491     3692     0.03        
3490     3692     3691     0.03        
3491     3492     3692     0.03        
3492     3693     3692     0.03        
3492     3493     3694     0.03        
3492     3694     3693     0.03        
3493     3494     3694     0.03        
3494     3695     3694     0.03        
3494     3495     3696     0.03        
3494     3696     3695     0.03        
3495     3496     3696     0.03        
3496     3697     3696     0.03        
3496     3497     3698     0.03        
3496     3698     3697     0.03        
3497     3498     3698     0.03        
3498     3699     3698     0.03        
3498     3499     3700     0.03        
3498     3700     3699     0.03        
3499     3500     3700     0.03        
3500     3701     3700     0.03        
3500     3501     3702     0.03        
3500     3702     3701     0.03        
3501     3502     3702     0.03        
3502     3703     3702     0.03        
3502     3503     3704     0.03        
3502     3704     3703     0.03        
3503     3504     3704     0.03        
3504     3705     3704     0.03        
3504     3505     3706     0.03        
3504     3706     3705     0.03        
3505     3506     3706     0.03        
3506     3707     3706     0.03        
3506     3507     3708     0.03        
3506     3708     3707     0.03        
3507     3508     3708     0.03        
3508     3709     3708     0.03        
3508     3509     3710     0.03        
3508     3710     3709     0.03        
3509     3510     3710     0.03        
3510     3711     3710     0.03        
3510     3511     3712     0.03        
3510     3712     3711     0.03        
3511     3512     3712     0.03        
3512     3713     3712     0.03        
3512     3513     3714     0.03        
3512     3714     3713     0.03        
3513     3514     3714     0.03        
3514     3715     3714     0.03        
3514     3515     3716     0.03        
3514     3716     3715     0.03        
3515     3516     3716     0.03        
3516     3717     3716     0.03        
3516     3517     3718     0.03        
3516     3718     3717     0.03        
3517     3518     3718     0.03        
3518     3719     3718     0.03        
3518     3519     3720     0.03        
3518     3720     3719     0.03        
3519     3520     3720     0.03        
3520     3721     3720     0.03        
3520     3521     3722     0.03        
3520     3722     3721     0.03        
3521     3522     3722     0.03        
3522     3723     3722     0.03        
3522     3523     3724     0.03        
3522     3724     3723     0.03        
3523     3524     3724     0.03        
3524     3725     3724     0.03        
3524     3525     3726     0.03        
3524     3726     3725     0.03        
3525     3526     3726     0.03        
3526     3727     3726     0.03        
3526     3527     3728     0.03        
3526     3728     3727     0.03        
3527     3528     3728     0.03        
3528     3729     3728     0.03        
3528     3529     3730     0.03        
3528     3730     3729     0.03        
3529     3530     3730     0.03        
3530     3731     3730     0.03        
3530     3531     3732     0.03        
3530     3732     3731     0.03        
3531     3532     3732     0.03        
3532     3733     3732     0.03        
3532     3533     3734     0.03        
3532     3734     3733     0.03        
3533     3534     3734     0.03        
3534     3735     3734     0.03        
3534     3535     3736     0.03        
3534     3736     3735     0.03        
3535     3536     3736     0.03        
3536     3737     3736     0.03        
3536     3537     3738     0.03        
3536     3738     3737     0.03        
3537     3538     3738     0.03        
3538     3739     3738     0.03        
3538     3539     3740     0.03        
3538     3740     3739     0.03        
3539     3540     3740     0.03        
3540     3741     3740     0.03        
3540     3541     3742     0.03        
3540     3742     3741     0.03        
3541     3542     3742     0.03        
3542     3743     3742     0.03        
3542     3543     3744     0.03        
3542     3744     3743     0.03        
3543     3544     3744     0.03        
3544     3745     3744     0.03        
3544     3545     3746     0.03        
3544     3746     3745     0.03        
3545     3546     3746     0.03        
3546     3747     3746     0.03        
3546     3547     3748     0.03        
3546     3748     3747     0.03        
3547     3548     3748     0.03        
3548     3749     3748     0.03        
3548     3549     3750     0.03        
3548     3750     3749     0.03        
3549     3550     3750     0.03        
3550     3751     3750     0.03        
3550     3551     3752     0.03        
3550     3752     3751     0.03        
3551     3552     3752     0.03        
3552     3753     3752     0.03        
3552     3553     3754     0.03        
3552     3754     3753     0.03        
3553     3554     3754     0.03        
3554     3755     3754     0.03        
3554     3555     3756     0.03        
3554     3756     3755     0.03        
3555     3556     3756     0.03        
3556     3757     3756     0.03        
3556     3557     3758     0.03        
3556     3758     3757     0.03        
3557     3558     3758     0.03        
3558     3759     3758     0.03        
3558     3559     3760     0.03        
3558     3760     3759     0.03        
3559     3560     3760     0.03        
3560     3761     3760     0.03        
3560     3561     3762     0.03        
3560     3762     3761     0.03        
3561     3562     3762     0.03        
3562     3763     3762     0.03        
3562     3563     3764     0.03        
3562     3764     3763     0.03        
3563     3564     3764     0.03        
3564     3765     3764     0.03        
3564     3565     3766     0.03        
3564     3766     3765     0.03        
3565     3566     3766     0.03        
3566     3767     3766     0.03        
3566     3567     3768     0.03        
3566     3768     3767     0.03        
3567     3568     3768     0.03        
3568     3769     3768     0.03        
3568     3569     3770     0.03        
3568     3770     3769     0.03        
3569     3570     3770     0.03        
3570     3771     3770     0.03        
3570     3571     3772     0.03        
3570     3772     3771     0.03        
3571     3572     3772     0.03        
3572     3773     3772     0.03        
3572     3573     3774     0.03        
3572     3774     3773     0.03        
3573     3574     3774     0.03        
3574     3775     3774     0.03        
3574     3575     3776     0.03        
3574     3776     3775     0.03        
3575     3576     3776     0.03        
3576     3777     3776     0.03        
3576     3577     3778     0.03        
3576     3778     3777     0.03        
3577     3578     3778     0.03        
3578     3779     3778     0.03        
3578     3579     3780     0.03        
3578     3780     3779     0.03        
3579     3580     3780     0.03        
3580     3781     3780     0.03        
3580     3581     3782     0.03        
3580     3782     3781     0.03        
3581     3582     3782     0.03        
3582     3783     3782     0.03        
3582     3583     3784     0.03        
3582     3784     3783     0.03        
3583     3584     3784     0.03        
3584     3785     3784     0.03        
3584     3585     3786     0.03        
3584     3786     3785     0.03        
3585     3586     3786     0.03        
3586     3787     3786     0.03        
3586     3587     3788     0.03        
3586     3788     3787     0.03        
3587     3588     3788     0.03        
3588     3789     3788     0.03        
3588     3589     3790     0.03        
3588     3790     3789     0.03        
3589     3590     3790     0.03        
3590     3791     3790     0.03        
3590     3591     3792     0.03        
3590     3792     3791     0.03        
3591     3592     3792     0.03        
3592     3793     3792     0.03        
3592     3593     3794     0.03        
3592     3794     3793     0.03        
3593     3594     3794     0.03        
3594     3795     3794     0.03        
3594     3595     3796     0.03        
3594     3796     3795     0.03        
3595     3596     3796     0.03        
3596     3797     3796     0.03        
3596     3597     3798     0.03        
3596     3798     3797     0.03        
3597     3598     3798     0.03        
3598     3799     3798     0.03        
3598     3599     3800     0.03        
3598     3800     3799     0.03        
3599     3600     3800     0.03        
3600     3801     3800     0.03        
3600     3601     3802     0.03        
3600     3802     3801     0.03        
3601     3602     3802     0.03        
3602     3803     3802     0.03        
3602     3603     3804     0.03        
3602     3804     3803     0.03        
3603     3604     3804     0.03        
3604     3805     3804     0.03        
3604     3605     3806     0.03        
3604     3806     3805     0.03        
3605     3606     3806     0.03        
3606     3807     3806     0.03        
3606     3607     3808     0.03        
3606     3808     3807     0.03        
3607     3608     3808     0.03        
3608     3809     3808     0.03        
3608     3609     3810     0.03        
3608     3810     3809     0.03        
3609     3610     3810     0.03        
3610     3811     3810     0.03        
3610     3611     3812     0.03        
3610     3812     3811     0.03        
3611     3612     3812     0.03        
3612     3813     3812     0.03        
3612     3613     3814     0.03        
3612     3814     3813     0.03        
3613     3614     3814     0.03        
3614     3815     3814     0.03        
3614     3615     3816     0.03        
3614     3816     3815     0.03        
3615     3616     3816     0.03        
3616     3817     3816     0.03        
3616     3617     3818     0.03        
3616     3818     3817     0.03        
3618     3619     3820     0.03        
3618     3820     3819     0.03        
3619     3620     3820     0.03        
3620     3821     3820     0.03        
3620     3621     3822     0.03        
3620     3822     3821     0.03        
3621     3622     3822     0.03        
3622     3823     3822     0.03        
3622     3623     3824     0.03        
3622     3824     3823     0.03        
3623     3624     3824     0.03        
3624     3825     3824     0.03        
3624     3625     3826     0.03        
3624     3826     3825     0.03        
3625     3626     3826     0.03        
3626     3827     3826     0.03        
3626     3627     3828     0.03        
3626     3828     3827     0.03        
3627     3628     3828     0.03        
3628     3829     3828     0.03        
3628     3629     3830     0.03        
3628     3830     3829     0.03        
3629     3630     3830     0.03        
3630     3831     3830     0.03        
3630     3631     3832     0.03        
3630     3832     3831     0.03        
3631     3632     3832     0.03        
3632     3833     3832     0.03        
3632     3633     3834     0.03        
3632     3834     3833     0.03        
3633     3634     3834     0.03        
3634     3835     3834     0.03        
3634     3635     3836     0.03        
3634     3836     3835     0.03        
3635     3636     3836     0.03        
3636     3837     3836     0.03        
3636     3637     3838     0.03        
3636     3838     3837     0.03        
3637     3638     3838     0.03        
3638     3839     3838     0.03        
3638     3639     3840     0.03        
3638     3840     3839     0.03        
3639     3640     3840     0.03        
3640     3841     3840     0.03        
3640     3641     3842     0.03        
3640     3842     3841     0.03        
3641     3642     3842     0.03        
3642     3843     3842     0.03        
3642     3643     3844     0.03        
3642     3844     3843     0.03        
3643     3644     3844     0.03        
3644     3845     3844     0.03        
3644     3645     3846     0.03        
3644     3846     3845     0.03        
3645     3646     3846     0.03        
3646     3847     3846     0.03        
3646     3647     3848     0.03        
3646     3848     3847     0.03        
3647     3648     3848     0.03        
3648     3849     3848     0.03        
3648     3649     3850     0.03        
3648     3850     3849     0.03        
3649     3650     3850     0.03        
3650     3851     3850     0.03        
3650     3651     3852     0.03        
3650     3852     3851     0.03        
3651     3652     3852     0.03        
3652     3853     3852     0.03        
3652     3653     3854     0.03        
3652     3854     3853     0.03        
3653     3654     3854     0.03        
3654     3855     3854     0.03        
3654     3655     3856     0.03        
3654     3856     3855     0.03        
3655     3656     3856     0.03        
3656     3857     3856     0.03        
3656     3657     3858     0.03        
3656     3858     3857     0.03        
3657     3658     3858     0.03        
3658     3859     3858     0.03        
3658     3659     3860     0.03        
3658     3860     3859     0.03        
3659     3660     3860     0.03        
3660     3861     3860     0.03        
3660     3661     3862     0.03        
3660     3862     3861     0.03        
3661     3662     3862     0.03        
3662     3863     3862     0.03        
3662     3663     3864     0.03        
3662     3864     3863     0.03        
3663     3664     3864     0.03        
3664     3865     3864     0.03        
3664     3665     3866     0.03        
3664     3866     3865     0.03        
3665     3666     3866     0.03        
3666     3867     3866     0.03        
3666     3667     3868     0.03        
3666     3868     3867     0.03        
3667     3668     3868     0.03        
3668     3869     3868     0.03        
3668     3669     3870     0.03        
3668     3870     3869     0.03        
3669     3670     3870     0.03        
3670     3871     3870     0.03        
3670     3671     3872     0.03        
3670     3872     3871     0.03        
3671     3672     3872     0.03        
3672     3873     3872     0.03        
3672     3673     3874     0.03        
3672     3874     3873     0.03        
3673     3674     3874     0.03        
3674     3875     3874     0.03        
3674     3675     3876     0.03        
3674     3876     3875     0.03        
3675     3676     3876     0.03        
3676     3877     3876     0.03        
3676     3677     3878     0.03        
3676     3878     3877     0.03        
3677     3678     3878     0.03        
3678     3879     3878     0.03        
3678     3679     3880     0.03        
3678     3880     3879     0.03        
3679     3680     3880     0.03        
3680     3881     3880     0.03        
3680     3681     3882     0.03        
3680     3882     3881     0.03        
3681     3682     3882     0.03        
3682     3883     3882     0.03        
3682     3683     3884     0.03        
3682     3884     3883     0.03        
3683     3684     3884     0.03        
3684     3885     3884     0.03        
3684     3685     3886     0.03        
3684     3886     3885     0.03        
3685     3686     3886     0.03        
3686     3887     3886     0.03        
3686     3687     3888     0.03        
3686     3888     3887     0.03        
3687     3688     3888     0.03        
3688     3889     3888     0.03        
3688     3689     3890     0.03        
3688     3890     3889     0.03        
3689     3690     3890     0.03        
3690     3891     3890     0.03        
3690     3691     3892     0.03        
3690     3892     3891     0.03        
3691     3692     3892     0.03        
3692     3893     3892     0.03        
3692     3693     3894     0.03        
3692     3894     3893     0.03        
3693     3694     3894     0.03        
3694     3895     3894     0.03        
3694     3695     3896     0.03        
3694     3896     3895     0.03        
3695     3696     3896     0.03        
3696     3897     3896     0.03        
3696     3697     3898     0.03        
3696     3898     3897     0.03        
3697     3698     3898     0.03        
3698     3899     3898     0.03        
3698     3699     3900     0.03        
3698     3900     3899     0.03        
3699     3700     3900     0.03        
3700     3901     3900     0.03        
3700     3701     3902     0.03        
3700     3902     3901     0.03        
3701     3702     3902     0.03        
3702     3903     3902     0.03        
3702     3703     3904     0.03        
3702     3904     3903     0.03        
3703     3704     3904     0.03        
3704     3905     3904     0.03        
3704     3705     3906     0.03        
3704     3906     3905     0.03        
3705     3706     3906     0.03        
3706     3907     3906     0.03        
3706     3707     3908     0.03        
3706     3908     3907     0.03        
3707     3708     3908     0.03        
3708     3909     3908     0.03        
3708     3709     3910     0.03        
3708     3910     3909     0.03        
3709     3710     3910     0.03        
3710     3911     3910     0.03        
3710     3711     3912     0.03        
3710     3912     3911     0.03        
3711     3712     3912     0.03        
3712     3913     3912     0.03        
3712     3713     3914     0.03        
3712     3914     3913     0.03        
3713     3714     3914     0.03        
3714     3915     3914     0.03        
3714     3715     3916     0.03        
3714     3916     3915     0.03        
3715     3716     3916     0.03        
3716     3917     3916     0.03        
3716     3717     3918     0.03        
3716     3918     3917     0.03        
3717     3718     3918     0.03        
3718     3919     3918     0.03        
3718     3719     3920     0.03        
3718     3920     3919     0.03        
3719     3720     3920     0.03        
3720     3921     3920     0.03        
3720     3721     3922     0.03        
3720     3922     3921     0.03        
3721     3722     3922     0.03        
3722     3923     3922     0.03        
3722     3723     3924     0.03        
3722     3924     3923     0.03        
3723     3724     3924     0.03        
3724     3925     3924     0.03        
3724     3725     3926     0.03        
3724     3926     3925     0.03        
3725     3726     3926     0.03        
3726     3927     3926     0.03        
3726     3727     3928     0.03        
3726     3928     3927     0.03        
3727     3728     3928     0.03        
3728     3929     3928     0.03        
3728     3729     3930     0.03        
3728     3930     3929     0.03        
3729     3730     3930     0.03        
3730     3931     3930     0.03        
3730     3731     3932     0.03        
3730     3932     3931     0.03        
3731     3732     3932     0.03        
3732     3933     3932     0.03        
3732     3733     3934     0.03        
3732     3934     3933     0.03        
3733     3734     3934     0.03        
3734     3935     3934     0.03        
3734     3735     3936     0.03        
3734     3936     3935     0.03        
3735     3736     3936     0.03        
3736     3937     3936     0.03        
3736     3737     3938     0.03        
3736     3938     3937     0.03        
3737     3738     3938     0.03        
3738     3939     3938     0.03        
3738     3739     3940     0.03        
3738     3940     3939     0.03        
3739     3740     3940     0.03        
3740     3941     3940     0.03        
3740     3741     3942     0.03        
3740     3942     3941     0.03        
3741     3742     3942     0.03        
3742     3943     3942     0.03        
3742     3743     3944     0.03        
3742     3944     3943     0.03        
3743     3744     3944     0.03        
3744     3945     3944     0.03        
3744     3745     3946     0.03        
3744     3946     3945     0.03        
3745     3746     3946     0.03        
3746     3947     3946     0.03        
3746     3747     3948     0.03        
3746     3948     3947     0.03        
3747     3748     3948     0.03        
3748     3949     3948     0.03        
3748     3749     3950     0.03        
3748     3950     3949     0.03        
3749     3750     3950     0.03        
3750     3951     3950     0.03        
3750     3751     3952     0.03        
3750     3952     3951     0.03        
3751     3752     3952     0.03        
3752     3953     3952     0.03        
3752     3753     3954     0.03        
3752     3954     3953     0.03        
3753     3754     3954     0.03        
3754     3955     3954     0.03        
3754     3755     3956     0.03        
3754     3956     3955     0.03        
3755     3756     3956     0.03        
3756     3957     3956     0.03        
3756     3757     3958     0.03        
3756     3958     3957     0.03        
3757     3758     3958     0.03        
3758     3959     3958     0.03        
3758     3759     3960     0.03        
3758     3960     3959     0.03        
3759     3760     3960     0.03        
3760     3961     3960     0.03        
3760     3761     3962     0.03        
3760     3962     3961     0.03        
3761     3762     3962     0.03        
3762     3963     3962     0.03        
3762     3763     3964     0.03        
3762     3964     3963     0.03        
3763     3764     3964     0.03        
3764     3965     3964     0.03        
3764     3765     3966     0.03        
3764     3966     3965     0.03        
3765     3766     3966     0.03        
3766     3967     3966     0.03        
3766     3767     3968     0.03        
3766     3968     3967     0.03        
3767     3768     3968     0.03        
3768     3969     3968     0.03        
3768     3769     3970     0.03        
3768     3970     3969     0.03        
3769     3770     3970     0.03        
3770     3971     3970     0.03        
3770     3771     3972     0.03        
3770     3972     3971     0.03        
3771     3772     3972     0.03        
3772     3973     3972     0.03        
3772     3773     3974     0.03        
3772     3974     3973     0.03        
3773     3774     3974     0.03        
3774     3975     3974     0.03        
3774     3775     3976     0.03        
3774     3976     3975     0.03        
3775     3776     3976     0.03        
3776     3977     3976     0.03        
3776     3777     3978     0.03        
3776     3978     3977     0.03        
3777     3778     3978     0.03        
3778     3979     3978     0.03        
3778     3779     3980     0.03        
3778     3980     3979     0.03        
3779     3780     3980     0.03        
3780     3981     3980     0.03        
3780     3781     3982     0.03        
3780     3982     3981     0.03        
3781     3782     3982     0.03        
3782     3983     3982     0.03        
3782     3783     3984     0.03        
3782     3984     3983     0.03        
3783     3784     3984     0.03        
3784     3985     3984     0.03        
3784     3785     3986     0.03        
3784     3986     3985     0.03        
3785     3786     3986     0.03        
3786     3987     3986     0.03        
3786     3787     3988     0.03        
3786     3988     3987     0.03        
3787     3788     3988     0.03        
3788     3989     3988     0.03        
3788     3789     3990     0.03        
3788     3990     3989     0.03        
3789     3790     3990     0.03        
3790     3991     3990     0.03        
3790     3791     3992     0.03        
3790     3992     3991     0.03        
3791     3792     3992     0.03        
3792     3993     3992     0.03        
3792     3793     3994     0.03        
3792     3994     3993     0.03        
3793     3794     3994     0.03        
3794     3995     3994     0.03        
3794     3795     3996     0.03        
3794     3996     3995     0.03        
3795     3796     3996     0.03        
3796     3997     3996     0.03        
3796     3797     3998     0.03        
3796     3998     3997     0.03        
3797     3798     3998     0.03        
3798     3999     3998     0.03        
3798     3799     4000     0.03        
3798     4000     3999     0.03        
3799     3800     4000     0.03        
3800     4001     4000     0.03        
3800     3801     4002     0.03        
3800     4002     4001     0.03        
3801     3802     4002     0.03        
3802     4003     4002     0.03        
3802     3803     4004     0.03        
3802     4004     4003     0.03        
3803     3804     4004     0.03        
3804     4005     4004     0.03        
3804     3805     4006     0.03        
3804     4006     4005     0.03        
3805     3806     4006     0.03        
3806     4007     4006     0.03        
3806     3807     4008     0.03        
3806     4008     4007     0.03        
3807     3808     4008     0.03        
3808     4009     4008     0.03        
3808     3809     4010     0.03        
3808     4010     4009     0.03        
3809     3810     4010     0.03        
3810     4011     4010     0.03        
3810     3811     4012     0.03        
3810     4012     4011     0.03        
3811     3812     4012     0.03        
3812     4013     4012     0.03        
3812     3813     4014     0.03        
3812     4014     4013     0.03        
3813     3814     4014     0.03        
3814     4015     4014     0.03        
3814     3815     4016     0.03        
3814     4016     4015     0.03        
3815     3816     4016     0.03        
3816     4017     4016     0.03        
3816     3817     4018     0.03        
3816     4018     4017     0.03        
3817     3818     4018     0.03        
3818     4019     4018     0.03        
3819     3820     4020     0.03        
3820     4021     4020     0.03        
3820     3821     4022     0.03        
3820     4022     4021     0.03        
3821     3822     4022     0.03        
3822     4023     4022     0.03        
3822     3823     4024     0.03        
3822     4024     4023     0.03        
3823     3824     4024     0.03        
3824     4025     4024     0.03        
3824     3825     4026     0.03        
3824     4026     4025     0.03        
3825     3826     4026     0.03        
3826     4027     4026     0.03        
3826     3827     4028     0.03        
3826     4028     4027     0.03        
3827     3828     4028     0.03        
3828     4029     4028     0.03        
3828     3829     4030     0.03        
3828     4030     4029     0.03        
3829     3830     4030     0.03        
3830     4031     4030     0.03        
3830     3831     4032     0.03        
3830     4032     4031     0.03        
3831     3832     4032     0.03        
3832     4033     4032     0.03        
3832     3833     4034     0.03        
3832     4034     4033     0.03        
3833     3834     4034     0.03        
3834     4035     4034     0.03        
3834     3835     4036     0.03        
3834     4036     4035     0.03        
3835     3836     4036     0.03        
3836     4037     4036     0.03        
3836     3837     4038     0.03        
3836     4038     4037     0.03        
3837     3838     4038     0.03        
3838     4039     4038     0.03        
3838     3839     4040     0.03        
3838     4040     4039     0.03        
3839     3840     4040     0.03        
3840     4041     4040     0.03        
3840     3841     4042     0.03        
3840     4042     4041     0.03        
3841     3842     4042     0.03        
3842     4043     4042     0.03        
3842     3843     4044     0.03        
3842     4044     4043     0.03        
3843     3844     4044     0.03        
3844     4045     4044     0.03        
3844     3845     4046     0.03        
3844     4046     4045     0.03        
3845     3846     4046     0.03        
3846     4047     4046     0.03        
3846     3847     4048     0.03        
3846     4048     4047     0.03        
3847     3848     4048     0.03        
3848     4049     4048     0.03        
3848     3849     4050     0.03        
3848     4050     4049     0.03        
3849     3850     4050     0.03        
3850     4051     4050     0.03        
3850     3851     4052     0.03        
3850     4052     4051     0.03        
3851     3852     4052     0.03        
3852     4053     4052     0.03        
3852     3853     4054     0.03        
3852     4054     4053     0.03        
3853     3854     4054     0.03        
3854     4055     4054     0.03        
3854     3855     4056     0.03        
3854     4056     4055     0.03        
3855     3856     4056     0.03        
3856     4057     4056     0.03        
3856     3857     4058     0.03        
3856     4058     4057     0.03        
3857     3858     4058     0.03        
3858     4059     4058     0.03        
3858     3859     4060     0.03        
3858     4060     4059     0.03        
3859     3860     4060     0.03        
3860     4061     4060     0.03        
3860     3861     4062     0.03        
3860     4062     4061     0.03        
3861     3862     4062     0.03        
3862     4063     4062     0.03        
3862     3863     4064     0.03        
3862     4064     4063     0.03        
3863     3864     4064     0.03        
3864     4065     4064     0.03        
3864     3865     4066     0.03        
3864     4066     4065     0.03        
3865     3866     4066     0.03        
3866     4067     4066     0.03        
3866     3867     4068     0.03        
3866     4068     4067     0.03        
3867     3868     4068     0.03        
3868     4069     4068     0.03        
3868     3869     4070     0.03        
3868     4070     4069     0.03        
3869     3870     4070     0.03        
3870     4071     4070     0.03        
3870     3871     4072     0.03        
3870     4072     4071     0.03        
3871     3872     4072     0.03        
3872     4073     4072     0.03        
3872     3873     4074     0.03        
3872     4074     4073     0.03        
3873     3874     4074     0.03        
3874     4075     4074     0.03        
3874     3875     4076     0.03        
3874     4076     4075     0.03        
3875     3876     4076     0.03        
3876     4077     4076     0.03        
3876     3877     4078     0.03        
3876     4078     4077     0.03        
3877     3878     4078     0.03        
3878     4079     4078     0.03        
3878     3879     4080     0.03        
3878     4080     4079     0.03        
3879     3880     4080     0.03        
3880     4081     4080     0.03        
3880     3881     4082     0.03        
3880     4082     4081     0.03        
3881     3882     4082     0.03        
3882     4083     4082     0.03        
3882     3883     4084     0.03        
3882     4084     4083     0.03        
3883     3884     4084     0.03        
3884     4085     4084     0.03        
3884     3885     4086     0.03        
3884     4086     4085     0.03        
3885     3886     4086     0.03        
3886     4087     4086     0.03        
3886     3887     4088     0.03        
3886     4088     4087     0.03        
3887     3888     4088     0.03        
3888     4089     4088     0.03        
3888     3889     4090     0.03        
3888     4090     4089     0.03        
3889     3890     4090     0.03        
3890     4091     4090     0.03        
3890     3891     4092     0.03        
3890     4092     4091     0.03        
3891     3892     4092     0.03        
3892     4093     4092     0.03        
3892     3893     4094     0.03        
3892     4094     4093     0.03        
3893     3894     4094     0.03        
3894     4095     4094     0.03        
3894     3895     4096     0.03        
3894     4096     4095     0.03        
3895     3896     4096     0.03        
3896     4097     4096     0.03        
3896     3897     4098     0.03        
3896     4098     4097     0.03        
3897     3898     4098     0.03        
3898     4099     4098     0.03        
3898     3899     4100     0.03        
3898     4100     4099     0.03        
3899     3900     4100     0.03        
3900     4101     4100     0.03        
3900     3901     4102     0.03        
3900     4102     4101     0.03        
3901     3902     4102     0.03        
3902     4103     4102     0.03        
3902     3903     4104     0.03        
3902     4104     4103     0.03        
3903     3904     4104     0.03        
3904     4105     4104     0.03        
3904     3905     4106     0.03        
3904     4106     4105     0.03        
3905     3906     4106     0.03        
3906     4107     4106     0.03        
3906     3907     4108     0.03        
3906     4108     4107     0.03        
3907     3908     4108     0.03        
3908     4109     4108     0.03        
3908     3909     4110     0.03        
3908     4110     4109     0.03        
3909     3910     4110     0.03        
3910     4111     4110     0.03        
3910     3911     4112     0.03        
3910     4112     4111     0.03        
3911     3912     4112     0.03        
3912     4113     4112     0.03        
3912     3913     4114     0.03        
3912     4114     4113     0.03        
3913     3914     4114     0.03        
3914     4115     4114     0.03        
3914     3915     4116     0.03        
3914     4116     4115     0.03        
3915     3916     4116     0.03        
3916     4117     4116     0.03        
3916     3917     4118     0.03        
3916     4118     4117     0.03        
3917     3918     4118     0.03        
3918     4119     4118     0.03        
3918     3919     4120     0.03        
3918     4120     4119     0.03        
3919     3920     4120     0.03        
3920     4121     4120     0.03        
3920     3921     4122     0.03        
3920     4122     4121     0.03        
3921     3922     4122     0.03        
3922     4123     4122     0.03        
3922     3923     4124     0.03        
3922     4124     4123     0.03        
3923     3924     4124     0.03        
3924     4125     4124     0.03        
3924     3925     4126     0.03        
3924     4126     4125     0.03        
3925     3926     4126     0.03        
3926     4127     4126     0.03        
3926     3927     4128     0.03        
3926     4128     4127     0.03        
3927     3928     4128     0.03        
3928     4129     4128     0.03        
3928     3929     4130     0.03        
3928     4130     4129     0.03        
3929     3930     4130     0.03        
3930     4131     4130     0.03        
3930     3931     4132     0.03        
3930     4132     4131     0.03        
3931     3932     4132     0.03        
3932     4133     4132     0.03        
3932     3933     4134     0.03        
3932     4134     4133     0.03        
3933     3934     4134     0.03        
3934     4135     4134     0.03        
3934     3935     4136     0.03        
3934     4136     4135     0.03        
3935     3936     4136     0.03        
3936     4137     4136     0.03        
3936     3937     4138     0.03        
3936     4138     4137     0.03        
3937     3938     4138     0.03        
3938     4139     4138     0.03        
3938     3939     4140     0.03        
3938     4140     4139     0.03        
3939     3940     4140     0.03        
3940     4141     4140     0.03        
3940     3941     4142     0.03        
3940     4142     4141     0.03        
3941     3942     4142     0.03        
3942     4143     4142     0.03        
3942     3943     4144     0.03        
3942     4144     4143     0.03        
3943     3944     4144     0.03        
3944     4145     4144     0.03        
3944     3945     4146     0.03        
3944     4146     4145     0.03        
3945     3946     4146     0.03        
3946     4147     4146     0.03        
3946     3947     4148     0.03        
3946     4148     4147     0.03        
3947     3948     4148     0.03        
3948     4149     4148     0.03        
3948     3949     4150     0.03        
3948     4150     4149     0.03        
3949     3950     4150     0.03        
3950     4151     4150     0.03        
3950     3951     4152     0.03        
3950     4152     4151     0.03        
3951     3952     4152     0.03        
3952     4153     4152     0.03        
3952     3953     4154     0.03        
3952     4154     4153     0.03        
3953     3954     4154     0.03        
3954     4155     4154     0.03        
3954     3955     4156     0.03        
3954     4156     4155     0.03        
3955     3956     4156     0.03        
3956     4157     4156     0.03        
3956     3957     4158     0.03        
3956     4158     4157     0.03        
3957     3958     4158     0.03        
3958     4159     4158     0.03        
3958     3959     4160     0.03        
3958     4160     4159     0.03        
3959     3960     4160     0.03        
3960     4161     4160     0.03        
3960     3961     4162     0.03        
3960     4162     4161     0.03        
3961     3962     4162     0.03        
3962     4163     4162     0.03        
3962     3963     4164     0.03        
3962     4164     4163     0.03        
3963     3964     4164     0.03        
3964     4165     4164     0.03        
3964     3965     4166     0.03        
3964     4166     4165     0.03        
3965     3966     4166     0.03        
3966     4167     4166     0.03        
3966     3967     4168     0.03        
3966     4168     4167     0.03        
3967     3968     4168     0.03        
3968     4169     4168     0.03        
3968     3969     4170     0.03        
3968     4170     4169     0.03        
3969     3970     4170     0.03        
3970     4171     4170     0.03        
3970     3971     4172     0.03        
3970     4172     4171     0.03        
3971     3972     4172     0.03        
3972     4173     4172     0.03        
3972     3973     4174     0.03        
3972     4174     4173     0.03        
3973     3974     4174     0.03        
3974     4175     4174     0.03        
3974     3975     4176     0.03        
3974     4176     4175     0.03        
3975     3976     4176     0.03        
3976     4177     4176     0.03        
3976     3977     4178     0.03        
3976     4178     4177     0.03        
3977     3978     4178     0.03        
3978     4179     4178     0.03        
3978     3979     4180     0.03        
3978     4180     4179     0.03        
3979     3980     4180     0.03        
3980     4181     4180     0.03        
3980     3981     4182     0.03        
3980     4182     4181     0.03        
3981     3982     4182     0.03        
3982     4183     4182     0.03        
3982     3983     4184     0.03        
3982     4184     4183     0.03        
3983     3984     4184     0.03        
3984     4185     4184     0.03        
3984     3985     4186     0.03        
3984     4186     4185     0.03        
3985     3986     4186     0.03        
3986     4187     4186     0.03        
3986     3987     4188     0.03        
3986     4188     4187     0.03        
3987     3988     4188     0.03        
3988     4189     4188     0.03        
3988     3989     4190     0.03        
3988     4190     4189     0.03        
3989     3990     4190     0.03        
3990     4191     4190     0.03        
3990     3991     4192     0.03        
3990     4192     4191     0.03        
3991     3992     4192     0.03        
3992     4193     4192     0.03        
3992     3993     4194     0.03        
3992     4194     4193     0.03        
3993     3994     4194     0.03        
3994     4195     4194     0.03        
3994     3995     4196     0.03        
3994     4196     4195     0.03        
3995     3996     4196     0.03        
3996     4197     4196     0.03        
3996     3997     4198     0.03        
3996     4198     4197     0.03        
3997     3998     4198     0.03        
3998     4199     4198     0.03        
3998     3999     4200     0.03        
3998     4200     4199     0.03        
3999     4000     4200     0.03        
4000     4201     4200     0.03        
4000     4001     4202     0.03        
4000     4202     4201     0.03        
4001     4002     4202     0.03        
4002     4203     4202     0.03        
4002     4003     4204     0.03        
4002     4204     4203     0.03        
4003     4004     4204     0.03        
4004     4205     4204     0.03        
4004     4005     4206     0.03        
4004     4206     4205     0.03        
4005     4006     4206     0.03        
4006     4207     4206     0.03        
4006     4007     4208     0.03        
4006     4208     4207     0.03        
4007     4008     4208     0.03        
4008     4209     4208     0.03        
4008     4009     4210     0.03        
4008     4210     4209     0.03        
4009     4010     4210     0.03        
4010     4211     4210     0.03        
4010     4011     4212     0.03        
4010     4212     4211     0.03        
4011     4012     4212     0.03        
4012     4213     4212     0.03        
4012     4013     4214     0.03        
4012     4214     4213     0.03        
4013     4014     4214     0.03        
4014     4215     4214     0.03        
4014     4015     4216     0.03        
4014     4216     4215     0.03        
4015     4016     4216     0.03        
4016     4217     4216     0.03        
4016     4017     4218     0.03        
4016     4218     4217     0.03        
4017     4018     4218     0.03        
4018     4219     4218     0.03        
4018     4019     4220     0.03        
4018     4220     4219     0.03        

[2D_VERTEX_NODE_MAP]
;;VERTEX NODE             CD         AREA
2060     J_P00            0.65       0.4
2160     J_P50            0.65       0.4

[2D_BOUNDARY_CONDITIONS]
;;TRI  EDGE TYPE             PARAM_1        PARAM_2  GROUP
399    2    NORMAL_FLOW      0.01
798    0    NORMAL_FLOW      0.01
1199   2    NORMAL_FLOW      0.01
1598   0    NORMAL_FLOW      0.01
1999   2    NORMAL_FLOW      0.01
2398   0    NORMAL_FLOW      0.01
2799   2    NORMAL_FLOW      0.01
3198   0    NORMAL_FLOW      0.01
3599   2    NORMAL_FLOW      0.01
3998   0    NORMAL_FLOW      0.01
4399   2    NORMAL_FLOW      0.01
4798   0    NORMAL_FLOW      0.01
5199   2    NORMAL_FLOW      0.01
5598   0    NORMAL_FLOW      0.01
5999   2    NORMAL_FLOW      0.01
6398   0    NORMAL_FLOW      0.01
6799   2    NORMAL_FLOW      0.01
7198   0    NORMAL_FLOW      0.01
7599   2    NORMAL_FLOW      0.01
7998   0    NORMAL_FLOW      0.01
