; SWASHES bump-subcritical — Subcritical flow over a bump (SWASHES 3.1.3)
; generated by swasheslib.gen1d for solver 1d-dynwave; nx=25 dx=1 W=1.0 n=1e-08

[TITLE]
SWASHES bump-subcritical / 1d-dynwave

[OPTIONS]
FLOW_UNITS             CMS
FLOW_ROUTING           DYNWAVE
START_DATE             01/01/2026
START_TIME             00:00:00
REPORT_START_DATE      01/01/2026
REPORT_START_TIME      00:00:00
END_DATE               01/01/2026
END_TIME               0:30:00
ROUTING_STEP           0.05
REPORT_STEP            0:00:10
WET_STEP               0:00:10
DRY_STEP               0:00:10
INERTIAL_DAMPING       NONE
NODE_CONTINUITY        EXPLICIT
NORMAL_FLOW_LIMITED    SLOPE
VARIABLE_STEP          0
LENGTHENING_STEP       0
MIN_SURFAREA           0.01
MAX_TRIALS             32
HEAD_TOLERANCE         1e-6
SURCHARGE_METHOD       EXTRAN
MIN_SLOPE              0
ALLOW_PONDING          NO
SKIP_STEADY_STATE      NO
INFILTRATION           HORTON
LINK_OFFSETS           DEPTH

[JUNCTIONS]
;;Name           InvertElev  MaxDepth  InitDepth  SurDepth  Aponded
N0000            0.000000    6.200     2.000000   0         0
N0001            0.000000    6.200     2.000000   0         0
N0002            0.000000    6.200     2.000000   0         0
N0003            0.000000    6.200     2.000000   0         0
N0004            0.000000    6.200     2.000000   0         0
N0005            0.000000    6.200     2.000000   0         0
N0006            0.000000    6.200     2.000000   0         0
N0007            0.000000    6.200     2.000000   0         0
N0008            0.000000    6.200     2.000000   0         0
N0009            0.150000    6.200     1.850000   0         0
N0010            0.200000    6.200     1.800000   0         0
N0011            0.150000    6.200     1.850000   0         0
N0012            0.000000    6.200     2.000000   0         0
N0013            0.000000    6.200     2.000000   0         0
N0014            0.000000    6.200     2.000000   0         0
N0015            0.000000    6.200     2.000000   0         0
N0016            0.000000    6.200     2.000000   0         0
N0017            0.000000    6.200     2.000000   0         0
N0018            0.000000    6.200     2.000000   0         0
N0019            0.000000    6.200     2.000000   0         0
N0020            0.000000    6.200     2.000000   0         0
N0021            0.000000    6.200     2.000000   0         0
N0022            0.000000    6.200     2.000000   0         0
N0023            0.000000    6.200     2.000000   0         0
N0024            0.000000    6.200     2.000000   0         0

[OUTFALLS]
;;Name           InvertElev  Type   StageData  Gated
N0025            0.000000    FIXED  2.000000   NO

[CONDUITS]
;;Name           FromNode         ToNode           Length     Roughness  InOffset  OutOffset  InitFlow  MaxFlow
C0000            N0000            N0001            1.000000   1e-08      0         0          0.0000    0
C0001            N0001            N0002            1.000000   1e-08      0         0          0.0000    0
C0002            N0002            N0003            1.000000   1e-08      0         0          0.0000    0
C0003            N0003            N0004            1.000000   1e-08      0         0          0.0000    0
C0004            N0004            N0005            1.000000   1e-08      0         0          0.0000    0
C0005            N0005            N0006            1.000000   1e-08      0         0          0.0000    0
C0006            N0006            N0007            1.000000   1e-08      0         0          0.0000    0
C0007            N0007            N0008            1.000000   1e-08      0         0          0.0000    0
C0008            N0008            N0009            1.000000   1e-08      0         0          0.0000    0
C0009            N0009            N0010            1.000000   1e-08      0         0          0.0000    0
C0010            N0010            N0011            1.000000   1e-08      0         0          0.0000    0
C0011            N0011            N0012            1.000000   1e-08      0         0          0.0000    0
C0012            N0012            N0013            1.000000   1e-08      0         0          0.0000    0
C0013            N0013            N0014            1.000000   1e-08      0         0          0.0000    0
C0014            N0014            N0015            1.000000   1e-08      0         0          0.0000    0
C0015            N0015            N0016            1.000000   1e-08      0         0          0.0000    0
C0016            N0016            N0017            1.000000   1e-08      0         0          0.0000    0
C0017            N0017            N0018            1.000000   1e-08      0         0          0.0000    0
C0018            N0018            N0019            1.000000   1e-08      0         0          0.0000    0
C0019            N0019            N0020            1.000000   1e-08      0         0          0.0000    0
C0020            N0020            N0021            1.000000   1e-08      0         0          0.0000    0
C0021            N0021            N0022            1.000000   1e-08      0         0          0.0000    0
C0022            N0022            N0023            1.000000   1e-08      0         0          0.0000    0
C0023            N0023            N0024            1.000000   1e-08      0         0          0.0000    0
C0024            N0024            N0025            1.000000   1e-08      0         0          0.0000    0

[XSECTIONS]
;;Link           Shape        Geom1     Geom2     Geom3  Geom4  Barrels
C0000            RECT_OPEN    6.200     1.000     0      0      1
C0001            RECT_OPEN    6.200     1.000     0      0      1
C0002            RECT_OPEN    6.200     1.000     0      0      1
C0003            RECT_OPEN    6.200     1.000     0      0      1
C0004            RECT_OPEN    6.200     1.000     0      0      1
C0005            RECT_OPEN    6.200     1.000     0      0      1
C0006            RECT_OPEN    6.200     1.000     0      0      1
C0007            RECT_OPEN    6.200     1.000     0      0      1
C0008            RECT_OPEN    6.200     1.000     0      0      1
C0009            RECT_OPEN    6.200     1.000     0      0      1
C0010            RECT_OPEN    6.200     1.000     0      0      1
C0011            RECT_OPEN    6.200     1.000     0      0      1
C0012            RECT_OPEN    6.200     1.000     0      0      1
C0013            RECT_OPEN    6.200     1.000     0      0      1
C0014            RECT_OPEN    6.200     1.000     0      0      1
C0015            RECT_OPEN    6.200     1.000     0      0      1
C0016            RECT_OPEN    6.200     1.000     0      0      1
C0017            RECT_OPEN    6.200     1.000     0      0      1
C0018            RECT_OPEN    6.200     1.000     0      0      1
C0019            RECT_OPEN    6.200     1.000     0      0      1
C0020            RECT_OPEN    6.200     1.000     0      0      1
C0021            RECT_OPEN    6.200     1.000     0      0      1
C0022            RECT_OPEN    6.200     1.000     0      0      1
C0023            RECT_OPEN    6.200     1.000     0      0      1
C0024            RECT_OPEN    6.200     1.000     0      0      1

[INFLOWS]
;;Node           Constituent  TimeSeries  Type  Mfactor  Sfactor  Baseline  Pattern
N0000            FLOW         ""          FLOW  1.0      1.0      4.420000 

[COORDINATES]
;;Node           X-Coord      Y-Coord
N0000            0.0000       0.0000      
N0001            1.0000       0.0000      
N0002            2.0000       0.0000      
N0003            3.0000       0.0000      
N0004            4.0000       0.0000      
N0005            5.0000       0.0000      
N0006            6.0000       0.0000      
N0007            7.0000       0.0000      
N0008            8.0000       0.0000      
N0009            9.0000       0.0000      
N0010            10.0000      0.0000      
N0011            11.0000      0.0000      
N0012            12.0000      0.0000      
N0013            13.0000      0.0000      
N0014            14.0000      0.0000      
N0015            15.0000      0.0000      
N0016            16.0000      0.0000      
N0017            17.0000      0.0000      
N0018            18.0000      0.0000      
N0019            19.0000      0.0000      
N0020            20.0000      0.0000      
N0021            21.0000      0.0000      
N0022            22.0000      0.0000      
N0023            23.0000      0.0000      
N0024            24.0000      0.0000      
N0025            25.0000      0.0000      

[REPORT]
INPUT      NO
CONTINUITY YES
FLOWSTATS  YES
NODES ALL
LINKS ALL

