[TITLE]
;; SWASHES bump-subcritical — Subcritical flow over a bump (SWASHES 3.1.3) — 2D strip 25x2 (edge ~1 m) for solver 2d-explicit

[OPTIONS]
FLOW_UNITS           CMS
INFILTRATION         HORTON
FLOW_ROUTING         DYNWAVE
LINK_OFFSETS         DEPTH
MIN_SLOPE            0
ALLOW_PONDING        NO
SKIP_STEADY_STATE    NO
THREADS              1
START_DATE           01/01/2026
START_TIME           00:00:00
REPORT_START_DATE    01/01/2026
REPORT_START_TIME    00:00:00
END_DATE             01/01/2026
END_TIME             0:30:00
REPORT_STEP          0:00:10
WET_STEP             0:00:10
DRY_STEP             0:00:10
ROUTING_STEP         1

[JUNCTIONS]
JD1     0     10        0          0         0

[OUTFALLS]
OD1     0     FREE          NO

[CONDUITS]
CD1     JD1   OD1  1      0.01   0   0   0

[XSECTIONS]
CD1     CIRCULAR  1.0    0      0      0      1

[COORDINATES]
JD1     26.0000   0.0000
OD1     27.0000   0.0000

[2D_OPTIONS]
INTEGRATOR             EXPLICIT
CFL_NUMBER             0.5
REPORT_2D              NO
OUTPUT_FILE            surface.h5
MAX_TIMESTEP           1.0
RAINFALL_MODE          NONE

[2D_VERTICES]
;; UNITS: SI (m)
;;X  Y  Z
0 -1 0
1 -1 0
2 -1 0
3 -1 0
4 -1 0
5 -1 0
6 -1 0
7 -1 0
8 -1 0
9 -1 0.15
10 -1 0.2
11 -1 0.15
12 -1 0
13 -1 0
14 -1 0
15 -1 0
16 -1 0
17 -1 0
18 -1 0
19 -1 0
20 -1 0
21 -1 0
22 -1 0
23 -1 0
24 -1 0
25 -1 0
0 0 0
1 0 0
2 0 0
3 0 0
4 0 0
5 0 0
6 0 0
7 0 0
8 0 0
9 0 0.15
10 0 0.2
11 0 0.15
12 0 0
13 0 0
14 0 0
15 0 0
16 0 0
17 0 0
18 0 0
19 0 0
20 0 0
21 0 0
22 0 0
23 0 0
24 0 0
25 0 0
0 1 0
1 1 0
2 1 0
3 1 0
4 1 0
5 1 0
6 1 0
7 1 0
8 1 0
9 1 0.15
10 1 0.2
11 1 0.15
12 1 0
13 1 0
14 1 0
15 1 0
16 1 0
17 1 0
18 1 0
19 1 0
20 1 0
21 1 0
22 1 0
23 1 0
24 1 0
25 1 0

[2D_TRIANGLES]
;;V1 V2 V3 MANNINGS_N INIT_DEPTH
0 1 27 1e-08 2
0 27 26 1e-08 2
1 2 27 1e-08 2
2 28 27 1e-08 2
2 3 29 1e-08 2
2 29 28 1e-08 2
3 4 29 1e-08 2
4 30 29 1e-08 2
4 5 31 1e-08 2
4 31 30 1e-08 2
5 6 31 1e-08 2
6 32 31 1e-08 2
6 7 33 1e-08 2
6 33 32 1e-08 2
7 8 33 1e-08 2
8 34 33 1e-08 2
8 9 35 1e-08 1.9
8 35 34 1e-08 1.95
9 10 35 1e-08 1.83333
10 36 35 1e-08 1.81667
10 11 37 1e-08 1.83333
10 37 36 1e-08 1.81667
11 12 37 1e-08 1.9
12 38 37 1e-08 1.95
12 13 39 1e-08 2
12 39 38 1e-08 2
13 14 39 1e-08 2
14 40 39 1e-08 2
14 15 41 1e-08 2
14 41 40 1e-08 2
15 16 41 1e-08 2
16 42 41 1e-08 2
16 17 43 1e-08 2
16 43 42 1e-08 2
17 18 43 1e-08 2
18 44 43 1e-08 2
18 19 45 1e-08 2
18 45 44 1e-08 2
19 20 45 1e-08 2
20 46 45 1e-08 2
20 21 47 1e-08 2
20 47 46 1e-08 2
21 22 47 1e-08 2
22 48 47 1e-08 2
22 23 49 1e-08 2
22 49 48 1e-08 2
23 24 49 1e-08 2
24 50 49 1e-08 2
24 25 51 1e-08 2
24 51 50 1e-08 2
26 27 52 1e-08 2
27 53 52 1e-08 2
27 28 54 1e-08 2
27 54 53 1e-08 2
28 29 54 1e-08 2
29 55 54 1e-08 2
29 30 56 1e-08 2
29 56 55 1e-08 2
30 31 56 1e-08 2
31 57 56 1e-08 2
31 32 58 1e-08 2
31 58 57 1e-08 2
32 33 58 1e-08 2
33 59 58 1e-08 2
33 34 60 1e-08 2
33 60 59 1e-08 2
34 35 60 1e-08 1.95
35 61 60 1e-08 1.9
35 36 62 1e-08 1.81667
35 62 61 1e-08 1.83333
36 37 62 1e-08 1.81667
37 63 62 1e-08 1.83333
37 38 64 1e-08 1.95
37 64 63 1e-08 1.9
38 39 64 1e-08 2
39 65 64 1e-08 2
39 40 66 1e-08 2
39 66 65 1e-08 2
40 41 66 1e-08 2
41 67 66 1e-08 2
41 42 68 1e-08 2
41 68 67 1e-08 2
42 43 68 1e-08 2
43 69 68 1e-08 2
43 44 70 1e-08 2
43 70 69 1e-08 2
44 45 70 1e-08 2
45 71 70 1e-08 2
45 46 72 1e-08 2
45 72 71 1e-08 2
46 47 72 1e-08 2
47 73 72 1e-08 2
47 48 74 1e-08 2
47 74 73 1e-08 2
48 49 74 1e-08 2
49 75 74 1e-08 2
49 50 76 1e-08 2
49 76 75 1e-08 2
50 51 76 1e-08 2
51 77 76 1e-08 2

[2D_BOUNDARY_CONDITIONS]
;;TRI  EDGE TYPE            PARAM_1
1    1    SPECIFIED_FLOW   -4.42
50    1    SPECIFIED_FLOW   -4.42
48    0    SPECIFIED_STAGE  2.000000
99    2    SPECIFIED_STAGE  2.000000

