; SWASHES p2d-jump-short — Pseudo-2D hydraulic jump at x = 120 m, B1, 200 m (SWASHES 3.5.4)
; generated by swasheslib.gen1d for solver 1d-dynwave; nx=400 dx=0.5 W=10.0 n=0.03

[TITLE]
SWASHES p2d-jump-short / 1d-dynwave

[OPTIONS]
FLOW_UNITS             CMS
FLOW_ROUTING           DYNWAVE
START_DATE             01/01/2026
START_TIME             00:00:00
REPORT_START_DATE      01/01/2026
REPORT_START_TIME      00:00:00
END_DATE               01/01/2026
END_TIME               0:30:00
ROUTING_STEP           0.015
REPORT_STEP            0:00:10
WET_STEP               0:00:10
DRY_STEP               0:00:10
INERTIAL_DAMPING       NONE
NODE_CONTINUITY        EXPLICIT
NORMAL_FLOW_LIMITED    SLOPE
VARIABLE_STEP          0
LENGTHENING_STEP       0
MIN_SURFAREA           0.01
MAX_TRIALS             32
HEAD_TOLERANCE         1e-6
SURCHARGE_METHOD       EXTRAN
MIN_SLOPE              0
ALLOW_PONDING          NO
SKIP_STEADY_STATE      NO
INFILTRATION           HORTON
LINK_OFFSETS           DEPTH

[JUNCTIONS]
;;Name           InvertElev  MaxDepth  InitDepth  SurDepth  Aponded
N0000            3.425166    7.923     0.000000   0         0
N0001            3.416704    7.923     0.000000   0         0
N0002            3.408227    7.923     0.000000   0         0
N0003            3.399737    7.923     0.000000   0         0
N0004            3.391232    7.923     0.000000   0         0
N0005            3.382712    7.923     0.000000   0         0
N0006            3.374176    7.923     0.000000   0         0
N0007            3.365623    7.923     0.000000   0         0
N0008            3.357052    7.923     0.000000   0         0
N0009            3.348463    7.923     0.000000   0         0
N0010            3.339856    7.923     0.000000   0         0
N0011            3.331228    7.923     0.000000   0         0
N0012            3.322580    7.923     0.000000   0         0
N0013            3.313910    7.923     0.000000   0         0
N0014            3.305219    7.923     0.000000   0         0
N0015            3.296505    7.923     0.000000   0         0
N0016            3.287767    7.923     0.000000   0         0
N0017            3.279004    7.923     0.000000   0         0
N0018            3.270217    7.923     0.000000   0         0
N0019            3.261403    7.923     0.000000   0         0
N0020            3.252563    7.923     0.000000   0         0
N0021            3.243694    7.923     0.000000   0         0
N0022            3.234797    7.923     0.000000   0         0
N0023            3.225870    7.923     0.000000   0         0
N0024            3.216914    7.923     0.000000   0         0
N0025            3.207925    7.923     0.000000   0         0
N0026            3.198905    7.923     0.000000   0         0
N0027            3.189851    7.923     0.000000   0         0
N0028            3.180764    7.923     0.000000   0         0
N0029            3.171641    7.923     0.000000   0         0
N0030            3.162483    7.923     0.000000   0         0
N0031            3.153287    7.923     0.000000   0         0
N0032            3.144054    7.923     0.000000   0         0
N0033            3.134782    7.923     0.000000   0         0
N0034            3.125470    7.923     0.000000   0         0
N0035            3.116117    7.923     0.000000   0         0
N0036            3.106723    7.923     0.000000   0         0
N0037            3.097285    7.923     0.000000   0         0
N0038            3.087803    7.923     0.000000   0         0
N0039            3.078277    7.923     0.000000   0         0
N0040            3.068704    7.923     0.000000   0         0
N0041            3.059084    7.923     0.000000   0         0
N0042            3.049416    7.923     0.000000   0         0
N0043            3.039699    7.923     0.000000   0         0
N0044            3.029931    7.923     0.000000   0         0
N0045            3.020111    7.923     0.000000   0         0
N0046            3.010238    7.923     0.000000   0         0
N0047            3.000312    7.923     0.000000   0         0
N0048            2.990330    7.923     0.000000   0         0
N0049            2.980292    7.923     0.000000   0         0
N0050            2.970196    7.923     0.000000   0         0
N0051            2.960042    7.923     0.000000   0         0
N0052            2.949827    7.923     0.000000   0         0
N0053            2.939552    7.923     0.000000   0         0
N0054            2.929213    7.923     0.000000   0         0
N0055            2.918811    7.923     0.000000   0         0
N0056            2.908344    7.923     0.000000   0         0
N0057            2.897811    7.923     0.000000   0         0
N0058            2.887210    7.923     0.000000   0         0
N0059            2.876539    7.923     0.000000   0         0
N0060            2.865799    7.923     0.000000   0         0
N0061            2.854986    7.923     0.000000   0         0
N0062            2.844101    7.923     0.000000   0         0
N0063            2.833141    7.923     0.000000   0         0
N0064            2.822105    7.923     0.000000   0         0
N0065            2.810992    7.923     0.000000   0         0
N0066            2.799801    7.923     0.000000   0         0
N0067            2.788529    7.923     0.000000   0         0
N0068            2.777176    7.923     0.000000   0         0
N0069            2.765740    7.923     0.000000   0         0
N0070            2.754219    7.923     0.000000   0         0
N0071            2.742612    7.923     0.000000   0         0
N0072            2.730918    7.923     0.000000   0         0
N0073            2.719135    7.923     0.000000   0         0
N0074            2.707262    7.923     0.000000   0         0
N0075            2.695297    7.923     0.000000   0         0
N0076            2.683239    7.923     0.000000   0         0
N0077            2.671085    7.923     0.000000   0         0
N0078            2.658836    7.923     0.000000   0         0
N0079            2.646488    7.923     0.000000   0         0
N0080            2.634041    7.923     0.000000   0         0
N0081            2.621493    7.923     0.000000   0         0
N0082            2.608842    7.923     0.000000   0         0
N0083            2.596087    7.923     0.000000   0         0
N0084            2.583227    7.923     0.000000   0         0
N0085            2.570259    7.923     0.000000   0         0
N0086            2.557183    7.923     0.000000   0         0
N0087            2.543996    7.923     0.000000   0         0
N0088            2.530698    7.923     0.000000   0         0
N0089            2.517287    7.923     0.000000   0         0
N0090            2.503760    7.923     0.000000   0         0
N0091            2.490118    7.923     0.000000   0         0
N0092            2.476358    7.923     0.000000   0         0
N0093            2.462478    7.923     0.000000   0         0
N0094            2.448478    7.923     0.000000   0         0
N0095            2.434356    7.923     0.000000   0         0
N0096            2.420110    7.923     0.000000   0         0
N0097            2.405739    7.923     0.000000   0         0
N0098            2.391242    7.923     0.000000   0         0
N0099            2.376617    7.923     0.000000   0         0
N0100            2.361864    7.923     0.000000   0         0
N0101            2.346980    7.923     0.000000   0         0
N0102            2.331965    7.923     0.000000   0         0
N0103            2.316816    7.923     0.000000   0         0
N0104            2.301535    7.923     0.000000   0         0
N0105            2.286118    7.923     0.000000   0         0
N0106            2.270565    7.923     0.000000   0         0
N0107            2.254875    7.923     0.000000   0         0
N0108            2.239047    7.923     0.000000   0         0
N0109            2.223080    7.923     0.000000   0         0
N0110            2.206973    7.923     0.000000   0         0
N0111            2.190725    7.923     0.000000   0         0
N0112            2.174337    7.923     0.000000   0         0
N0113            2.157806    7.923     0.000000   0         0
N0114            2.141133    7.923     0.000000   0         0
N0115            2.124317    7.923     0.000000   0         0
N0116            2.107358    7.923     0.000000   0         0
N0117            2.090255    7.923     0.000000   0         0
N0118            2.073009    7.923     0.000000   0         0
N0119            2.055618    7.923     0.000000   0         0
N0120            2.038084    7.923     0.000000   0         0
N0121            2.020407    7.923     0.000000   0         0
N0122            2.002585    7.923     0.000000   0         0
N0123            1.984621    7.923     0.000000   0         0
N0124            1.966514    7.923     0.000000   0         0
N0125            1.948266    7.923     0.000000   0         0
N0126            1.929876    7.923     0.000000   0         0
N0127            1.911347    7.923     0.000000   0         0
N0128            1.892678    7.923     0.000000   0         0
N0129            1.873872    7.923     0.000000   0         0
N0130            1.854929    7.923     0.000000   0         0
N0131            1.835852    7.923     0.000000   0         0
N0132            1.816642    7.923     0.000000   0         0
N0133            1.797300    7.923     0.000000   0         0
N0134            1.777830    7.923     0.000000   0         0
N0135            1.758233    7.923     0.000000   0         0
N0136            1.738512    7.923     0.000000   0         0
N0137            1.718670    7.923     0.000000   0         0
N0138            1.698709    7.923     0.000000   0         0
N0139            1.678633    7.923     0.000000   0         0
N0140            1.658445    7.923     0.000000   0         0
N0141            1.638149    7.923     0.000000   0         0
N0142            1.617748    7.923     0.000000   0         0
N0143            1.597247    7.923     0.000000   0         0
N0144            1.576649    7.923     0.000000   0         0
N0145            1.555960    7.923     0.000000   0         0
N0146            1.535183    7.923     0.000000   0         0
N0147            1.514324    7.923     0.000000   0         0
N0148            1.493388    7.923     0.005848   0         0
N0149            1.472380    7.923     0.026856   0         0
N0150            1.451307    7.923     0.047930   0         0
N0151            1.430173    7.923     0.069063   0         0
N0152            1.408985    7.923     0.090251   0         0
N0153            1.387750    7.923     0.111486   0         0
N0154            1.366474    7.923     0.132763   0         0
N0155            1.345163    7.923     0.154073   0         0
N0156            1.323825    7.923     0.175411   0         0
N0157            1.302467    7.923     0.196769   0         0
N0158            1.281097    7.923     0.218139   0         0
N0159            1.259722    7.923     0.239514   0         0
N0160            1.238350    7.923     0.260886   0         0
N0161            1.216989    7.923     0.282248   0         0
N0162            1.195647    7.923     0.303589   0         0
N0163            1.174333    7.923     0.324903   0         0
N0164            1.153055    7.923     0.346181   0         0
N0165            1.131822    7.923     0.367414   0         0
N0166            1.110643    7.923     0.388593   0         0
N0167            1.089526    7.923     0.409710   0         0
N0168            1.068482    7.923     0.430755   0         0
N0169            1.047518    7.923     0.451718   0         0
N0170            1.026645    7.923     0.472592   0         0
N0171            1.005871    7.923     0.493366   0         0
N0172            0.985205    7.923     0.514031   0         0
N0173            0.964658    7.923     0.534578   0         0
N0174            0.944239    7.923     0.554997   0         0
N0175            0.923956    7.923     0.575280   0         0
N0176            0.903820    7.923     0.595416   0         0
N0177            0.883839    7.923     0.615397   0         0
N0178            0.864023    7.923     0.635213   0         0
N0179            0.844381    7.923     0.654856   0         0
N0180            0.824921    7.923     0.674315   0         0
N0181            0.805653    7.923     0.693583   0         0
N0182            0.786585    7.923     0.712651   0         0
N0183            0.767726    7.923     0.731510   0         0
N0184            0.749084    7.923     0.750152   0         0
N0185            0.730668    7.923     0.768569   0         0
N0186            0.712484    7.923     0.786752   0         0
N0187            0.694541    7.923     0.804695   0         0
N0188            0.676846    7.923     0.822390   0         0
N0189            0.659407    7.923     0.839830   0         0
N0190            0.642229    7.923     0.857007   0         0
N0191            0.625319    7.923     0.873917   0         0
N0192            0.608684    7.923     0.890552   0         0
N0193            0.592329    7.923     0.906907   0         0
N0194            0.576259    7.923     0.922977   0         0
N0195            0.560479    7.923     0.938757   0         0
N0196            0.544995    7.923     0.954241   0         0
N0197            0.529809    7.923     0.969427   0         0
N0198            0.514927    7.923     0.984309   0         0
N0199            0.500351    7.923     0.998886   0         0
N0200            0.486083    7.923     1.013153   0         0
N0201            0.472128    7.923     1.027108   0         0
N0202            0.458486    7.923     1.040750   0         0
N0203            0.445160    7.923     1.054077   0         0
N0204            0.432150    7.923     1.067087   0         0
N0205            0.419457    7.923     1.079779   0         0
N0206            0.407082    7.923     1.092154   0         0
N0207            0.395025    7.923     1.104211   0         0
N0208            0.383285    7.923     1.115951   0         0
N0209            0.371861    7.923     1.127375   0         0
N0210            0.360752    7.923     1.138484   0         0
N0211            0.349956    7.923     1.149280   0         0
N0212            0.339472    7.923     1.159765   0         0
N0213            0.329296    7.923     1.169940   0         0
N0214            0.319426    7.923     1.179810   0         0
N0215            0.309859    7.923     1.189377   0         0
N0216            0.300591    7.923     1.198645   0         0
N0217            0.291619    7.923     1.207617   0         0
N0218            0.282938    7.923     1.216298   0         0
N0219            0.274544    7.923     1.224692   0         0
N0220            0.266433    7.923     1.232803   0         0
N0221            0.258599    7.923     1.240637   0         0
N0222            0.251038    7.923     1.248199   0         0
N0223            0.243743    7.923     1.255493   0         0
N0224            0.236710    7.923     1.262526   0         0
N0225            0.229933    7.923     1.269303   0         0
N0226            0.223406    7.923     1.275830   0         0
N0227            0.217123    7.923     1.282113   0         0
N0228            0.211078    7.923     1.288158   0         0
N0229            0.205265    7.923     1.293972   0         0
N0230            0.199676    7.923     1.299560   0         0
N0231            0.194307    7.923     1.304930   0         0
N0232            0.189149    7.923     1.310087   0         0
N0233            0.184198    7.923     1.315038   0         0
N0234            0.179446    7.923     1.319790   0         0
N0235            0.174887    7.923     1.324349   0         0
N0236            0.170514    7.923     1.328723   0         0
N0237            0.166320    7.923     1.332916   0         0
N0238            0.162300    7.923     1.336936   0         0
N0239            0.158446    7.923     1.340790   0         0
N0240            0.154753    7.923     1.344483   0         0
N0241            0.151215    7.923     1.348021   0         0
N0242            0.147832    7.923     1.351404   0         0
N0243            0.144603    7.923     1.354633   0         0
N0244            0.141525    7.923     1.357712   0         0
N0245            0.138594    7.923     1.360642   0         0
N0246            0.135806    7.923     1.363430   0         0
N0247            0.133156    7.923     1.366080   0         0
N0248            0.130638    7.923     1.368598   0         0
N0249            0.128246    7.923     1.370990   0         0
N0250            0.125975    7.923     1.373261   0         0
N0251            0.123817    7.923     1.375419   0         0
N0252            0.121768    7.923     1.377469   0         0
N0253            0.119820    7.923     1.379416   0         0
N0254            0.117969    7.923     1.381267   0         0
N0255            0.116208    7.923     1.383028   0         0
N0256            0.114532    7.923     1.384704   0         0
N0257            0.112936    7.923     1.386300   0         0
N0258            0.111414    7.923     1.387822   0         0
N0259            0.109962    7.923     1.389274   0         0
N0260            0.108575    7.923     1.390661   0         0
N0261            0.107248    7.923     1.391988   0         0
N0262            0.105978    7.923     1.393258   0         0
N0263            0.104761    7.923     1.394476   0         0
N0264            0.103592    7.923     1.395645   0         0
N0265            0.102468    7.923     1.396768   0         0
N0266            0.101386    7.923     1.397850   0         0
N0267            0.100343    7.923     1.398894   0         0
N0268            0.099335    7.923     1.399901   0         0
N0269            0.098361    7.923     1.400876   0         0
N0270            0.097417    7.923     1.401820   0         0
N0271            0.096500    7.923     1.402736   0         0
N0272            0.095610    7.923     1.403626   0         0
N0273            0.094743    7.923     1.404493   0         0
N0274            0.093898    7.923     1.405338   0         0
N0275            0.093073    7.923     1.406163   0         0
N0276            0.092266    7.923     1.406970   0         0
N0277            0.091476    7.923     1.407760   0         0
N0278            0.090700    7.923     1.408536   0         0
N0279            0.089939    7.923     1.409297   0         0
N0280            0.089190    7.923     1.410046   0         0
N0281            0.088452    7.923     1.410784   0         0
N0282            0.087724    7.923     1.411512   0         0
N0283            0.087006    7.923     1.412230   0         0
N0284            0.086296    7.923     1.412940   0         0
N0285            0.085593    7.923     1.413643   0         0
N0286            0.084897    7.923     1.414339   0         0
N0287            0.084207    7.923     1.415030   0         0
N0288            0.083522    7.923     1.415715   0         0
N0289            0.082841    7.923     1.416395   0         0
N0290            0.082165    7.923     1.417071   0         0
N0291            0.081492    7.923     1.417744   0         0
N0292            0.080822    7.923     1.418414   0         0
N0293            0.080155    7.923     1.419081   0         0
N0294            0.079490    7.923     1.419746   0         0
N0295            0.078827    7.923     1.420410   0         0
N0296            0.078165    7.923     1.421071   0         0
N0297            0.077504    7.923     1.421732   0         0
N0298            0.076844    7.923     1.422392   0         0
N0299            0.076185    7.923     1.423051   0         0
N0300            0.075526    7.923     1.423710   0         0
N0301            0.074867    7.923     1.424369   0         0
N0302            0.074209    7.923     1.425028   0         0
N0303            0.073549    7.923     1.425687   0         0
N0304            0.072890    7.923     1.426346   0         0
N0305            0.072230    7.923     1.427007   0         0
N0306            0.071569    7.923     1.427668   0         0
N0307            0.070907    7.923     1.428329   0         0
N0308            0.070244    7.923     1.428992   0         0
N0309            0.069580    7.923     1.429656   0         0
N0310            0.068915    7.923     1.430321   0         0
N0311            0.068248    7.923     1.430988   0         0
N0312            0.067580    7.923     1.431656   0         0
N0313            0.066911    7.923     1.432325   0         0
N0314            0.066240    7.923     1.432996   0         0
N0315            0.065568    7.923     1.433669   0         0
N0316            0.064893    7.923     1.434343   0         0
N0317            0.064217    7.923     1.435019   0         0
N0318            0.063539    7.923     1.435697   0         0
N0319            0.062860    7.923     1.436376   0         0
N0320            0.062178    7.923     1.437058   0         0
N0321            0.061495    7.923     1.437742   0         0
N0322            0.060809    7.923     1.438427   0         0
N0323            0.060122    7.923     1.439115   0         0
N0324            0.059432    7.923     1.439804   0         0
N0325            0.058740    7.923     1.440496   0         0
N0326            0.058046    7.923     1.441190   0         0
N0327            0.057350    7.923     1.441886   0         0
N0328            0.056652    7.923     1.442584   0         0
N0329            0.055952    7.923     1.443284   0         0
N0330            0.055249    7.923     1.443987   0         0
N0331            0.054544    7.923     1.444692   0         0
N0332            0.053837    7.923     1.445399   0         0
N0333            0.053127    7.923     1.446109   0         0
N0334            0.052415    7.923     1.446821   0         0
N0335            0.051701    7.923     1.447535   0         0
N0336            0.050984    7.923     1.448252   0         0
N0337            0.050265    7.923     1.448971   0         0
N0338            0.049544    7.923     1.449692   0         0
N0339            0.048820    7.923     1.450416   0         0
N0340            0.048094    7.923     1.451142   0         0
N0341            0.047365    7.923     1.451871   0         0
N0342            0.046634    7.923     1.452602   0         0
N0343            0.045900    7.923     1.453336   0         0
N0344            0.045164    7.923     1.454072   0         0
N0345            0.044425    7.923     1.454811   0         0
N0346            0.043684    7.923     1.455552   0         0
N0347            0.042940    7.923     1.456296   0         0
N0348            0.042194    7.923     1.457042   0         0
N0349            0.041445    7.923     1.457791   0         0
N0350            0.040694    7.923     1.458542   0         0
N0351            0.039940    7.923     1.459296   0         0
N0352            0.039184    7.923     1.460052   0         0
N0353            0.038425    7.923     1.460811   0         0
N0354            0.037664    7.923     1.461573   0         0
N0355            0.036900    7.923     1.462337   0         0
N0356            0.036133    7.923     1.463103   0         0
N0357            0.035364    7.923     1.463872   0         0
N0358            0.034592    7.923     1.464644   0         0
N0359            0.033818    7.923     1.465418   0         0
N0360            0.033041    7.923     1.466195   0         0
N0361            0.032262    7.923     1.466974   0         0
N0362            0.031480    7.923     1.467756   0         0
N0363            0.030696    7.923     1.468540   0         0
N0364            0.029909    7.923     1.469327   0         0
N0365            0.029120    7.923     1.470117   0         0
N0366            0.028328    7.923     1.470908   0         0
N0367            0.027533    7.923     1.471703   0         0
N0368            0.026736    7.923     1.472500   0         0
N0369            0.025937    7.923     1.473299   0         0
N0370            0.025135    7.923     1.474101   0         0
N0371            0.024331    7.923     1.474905   0         0
N0372            0.023524    7.923     1.475712   0         0
N0373            0.022715    7.923     1.476522   0         0
N0374            0.021903    7.923     1.477333   0         0
N0375            0.021089    7.923     1.478147   0         0
N0376            0.020272    7.923     1.478964   0         0
N0377            0.019453    7.923     1.479783   0         0
N0378            0.018632    7.923     1.480604   0         0
N0379            0.017808    7.923     1.481428   0         0
N0380            0.016982    7.923     1.482254   0         0
N0381            0.016154    7.923     1.483082   0         0
N0382            0.015324    7.923     1.483913   0         0
N0383            0.014491    7.923     1.484746   0         0
N0384            0.013655    7.923     1.485581   0         0
N0385            0.012818    7.923     1.486418   0         0
N0386            0.011978    7.923     1.487258   0         0
N0387            0.011136    7.923     1.488100   0         0
N0388            0.010292    7.923     1.488944   0         0
N0389            0.009446    7.923     1.489790   0         0
N0390            0.008598    7.923     1.490639   0         0
N0391            0.007747    7.923     1.491489   0         0
N0392            0.006894    7.923     1.492342   0         0
N0393            0.006040    7.923     1.493196   0         0
N0394            0.005183    7.923     1.494053   0         0
N0395            0.004324    7.923     1.494912   0         0
N0396            0.003463    7.923     1.495773   0         0
N0397            0.002600    7.923     1.496636   0         0
N0398            0.001735    7.923     1.497501   0         0
N0399            0.000869    7.923     1.498367   0         0

[OUTFALLS]
;;Name           InvertElev  Type   StageData  Gated
N0400            0.000000    FIXED  1.499236   NO

[CONDUITS]
;;Name           FromNode         ToNode           Length     Roughness  InOffset  OutOffset  InitFlow  MaxFlow
C0000            N0000            N0001            0.500000   0.03       0         0          0.0000    0
C0001            N0001            N0002            0.500000   0.03       0         0          0.0000    0
C0002            N0002            N0003            0.500000   0.03       0         0          0.0000    0
C0003            N0003            N0004            0.500000   0.03       0         0          0.0000    0
C0004            N0004            N0005            0.500000   0.03       0         0          0.0000    0
C0005            N0005            N0006            0.500000   0.03       0         0          0.0000    0
C0006            N0006            N0007            0.500000   0.03       0         0          0.0000    0
C0007            N0007            N0008            0.500000   0.03       0         0          0.0000    0
C0008            N0008            N0009            0.500000   0.03       0         0          0.0000    0
C0009            N0009            N0010            0.500000   0.03       0         0          0.0000    0
C0010            N0010            N0011            0.500000   0.03       0         0          0.0000    0
C0011            N0011            N0012            0.500000   0.03       0         0          0.0000    0
C0012            N0012            N0013            0.500000   0.03       0         0          0.0000    0
C0013            N0013            N0014            0.500000   0.03       0         0          0.0000    0
C0014            N0014            N0015            0.500000   0.03       0         0          0.0000    0
C0015            N0015            N0016            0.500000   0.03       0         0          0.0000    0
C0016            N0016            N0017            0.500000   0.03       0         0          0.0000    0
C0017            N0017            N0018            0.500000   0.03       0         0          0.0000    0
C0018            N0018            N0019            0.500000   0.03       0         0          0.0000    0
C0019            N0019            N0020            0.500000   0.03       0         0          0.0000    0
C0020            N0020            N0021            0.500000   0.03       0         0          0.0000    0
C0021            N0021            N0022            0.500000   0.03       0         0          0.0000    0
C0022            N0022            N0023            0.500000   0.03       0         0          0.0000    0
C0023            N0023            N0024            0.500000   0.03       0         0          0.0000    0
C0024            N0024            N0025            0.500000   0.03       0         0          0.0000    0
C0025            N0025            N0026            0.500000   0.03       0         0          0.0000    0
C0026            N0026            N0027            0.500000   0.03       0         0          0.0000    0
C0027            N0027            N0028            0.500000   0.03       0         0          0.0000    0
C0028            N0028            N0029            0.500000   0.03       0         0          0.0000    0
C0029            N0029            N0030            0.500000   0.03       0         0          0.0000    0
C0030            N0030            N0031            0.500000   0.03       0         0          0.0000    0
C0031            N0031            N0032            0.500000   0.03       0         0          0.0000    0
C0032            N0032            N0033            0.500000   0.03       0         0          0.0000    0
C0033            N0033            N0034            0.500000   0.03       0         0          0.0000    0
C0034            N0034            N0035            0.500000   0.03       0         0          0.0000    0
C0035            N0035            N0036            0.500000   0.03       0         0          0.0000    0
C0036            N0036            N0037            0.500000   0.03       0         0          0.0000    0
C0037            N0037            N0038            0.500000   0.03       0         0          0.0000    0
C0038            N0038            N0039            0.500000   0.03       0         0          0.0000    0
C0039            N0039            N0040            0.500000   0.03       0         0          0.0000    0
C0040            N0040            N0041            0.500000   0.03       0         0          0.0000    0
C0041            N0041            N0042            0.500000   0.03       0         0          0.0000    0
C0042            N0042            N0043            0.500000   0.03       0         0          0.0000    0
C0043            N0043            N0044            0.500000   0.03       0         0          0.0000    0
C0044            N0044            N0045            0.500000   0.03       0         0          0.0000    0
C0045            N0045            N0046            0.500000   0.03       0         0          0.0000    0
C0046            N0046            N0047            0.500000   0.03       0         0          0.0000    0
C0047            N0047            N0048            0.500000   0.03       0         0          0.0000    0
C0048            N0048            N0049            0.500000   0.03       0         0          0.0000    0
C0049            N0049            N0050            0.500000   0.03       0         0          0.0000    0
C0050            N0050            N0051            0.500000   0.03       0         0          0.0000    0
C0051            N0051            N0052            0.500000   0.03       0         0          0.0000    0
C0052            N0052            N0053            0.500000   0.03       0         0          0.0000    0
C0053            N0053            N0054            0.500000   0.03       0         0          0.0000    0
C0054            N0054            N0055            0.500000   0.03       0         0          0.0000    0
C0055            N0055            N0056            0.500000   0.03       0         0          0.0000    0
C0056            N0056            N0057            0.500000   0.03       0         0          0.0000    0
C0057            N0057            N0058            0.500000   0.03       0         0          0.0000    0
C0058            N0058            N0059            0.500000   0.03       0         0          0.0000    0
C0059            N0059            N0060            0.500000   0.03       0         0          0.0000    0
C0060            N0060            N0061            0.500000   0.03       0         0          0.0000    0
C0061            N0061            N0062            0.500000   0.03       0         0          0.0000    0
C0062            N0062            N0063            0.500000   0.03       0         0          0.0000    0
C0063            N0063            N0064            0.500000   0.03       0         0          0.0000    0
C0064            N0064            N0065            0.500000   0.03       0         0          0.0000    0
C0065            N0065            N0066            0.500000   0.03       0         0          0.0000    0
C0066            N0066            N0067            0.500000   0.03       0         0          0.0000    0
C0067            N0067            N0068            0.500000   0.03       0         0          0.0000    0
C0068            N0068            N0069            0.500000   0.03       0         0          0.0000    0
C0069            N0069            N0070            0.500000   0.03       0         0          0.0000    0
C0070            N0070            N0071            0.500000   0.03       0         0          0.0000    0
C0071            N0071            N0072            0.500000   0.03       0         0          0.0000    0
C0072            N0072            N0073            0.500000   0.03       0         0          0.0000    0
C0073            N0073            N0074            0.500000   0.03       0         0          0.0000    0
C0074            N0074            N0075            0.500000   0.03       0         0          0.0000    0
C0075            N0075            N0076            0.500000   0.03       0         0          0.0000    0
C0076            N0076            N0077            0.500000   0.03       0         0          0.0000    0
C0077            N0077            N0078            0.500000   0.03       0         0          0.0000    0
C0078            N0078            N0079            0.500000   0.03       0         0          0.0000    0
C0079            N0079            N0080            0.500000   0.03       0         0          0.0000    0
C0080            N0080            N0081            0.500000   0.03       0         0          0.0000    0
C0081            N0081            N0082            0.500000   0.03       0         0          0.0000    0
C0082            N0082            N0083            0.500000   0.03       0         0          0.0000    0
C0083            N0083            N0084            0.500000   0.03       0         0          0.0000    0
C0084            N0084            N0085            0.500000   0.03       0         0          0.0000    0
C0085            N0085            N0086            0.500000   0.03       0         0          0.0000    0
C0086            N0086            N0087            0.500000   0.03       0         0          0.0000    0
C0087            N0087            N0088            0.500000   0.03       0         0          0.0000    0
C0088            N0088            N0089            0.500000   0.03       0         0          0.0000    0
C0089            N0089            N0090            0.500000   0.03       0         0          0.0000    0
C0090            N0090            N0091            0.500000   0.03       0         0          0.0000    0
C0091            N0091            N0092            0.500000   0.03       0         0          0.0000    0
C0092            N0092            N0093            0.500000   0.03       0         0          0.0000    0
C0093            N0093            N0094            0.500000   0.03       0         0          0.0000    0
C0094            N0094            N0095            0.500000   0.03       0         0          0.0000    0
C0095            N0095            N0096            0.500000   0.03       0         0          0.0000    0
C0096            N0096            N0097            0.500000   0.03       0         0          0.0000    0
C0097            N0097            N0098            0.500000   0.03       0         0          0.0000    0
C0098            N0098            N0099            0.500000   0.03       0         0          0.0000    0
C0099            N0099            N0100            0.500000   0.03       0         0          0.0000    0
C0100            N0100            N0101            0.500000   0.03       0         0          0.0000    0
C0101            N0101            N0102            0.500000   0.03       0         0          0.0000    0
C0102            N0102            N0103            0.500000   0.03       0         0          0.0000    0
C0103            N0103            N0104            0.500000   0.03       0         0          0.0000    0
C0104            N0104            N0105            0.500000   0.03       0         0          0.0000    0
C0105            N0105            N0106            0.500000   0.03       0         0          0.0000    0
C0106            N0106            N0107            0.500000   0.03       0         0          0.0000    0
C0107            N0107            N0108            0.500000   0.03       0         0          0.0000    0
C0108            N0108            N0109            0.500000   0.03       0         0          0.0000    0
C0109            N0109            N0110            0.500000   0.03       0         0          0.0000    0
C0110            N0110            N0111            0.500000   0.03       0         0          0.0000    0
C0111            N0111            N0112            0.500000   0.03       0         0          0.0000    0
C0112            N0112            N0113            0.500000   0.03       0         0          0.0000    0
C0113            N0113            N0114            0.500000   0.03       0         0          0.0000    0
C0114            N0114            N0115            0.500000   0.03       0         0          0.0000    0
C0115            N0115            N0116            0.500000   0.03       0         0          0.0000    0
C0116            N0116            N0117            0.500000   0.03       0         0          0.0000    0
C0117            N0117            N0118            0.500000   0.03       0         0          0.0000    0
C0118            N0118            N0119            0.500000   0.03       0         0          0.0000    0
C0119            N0119            N0120            0.500000   0.03       0         0          0.0000    0
C0120            N0120            N0121            0.500000   0.03       0         0          0.0000    0
C0121            N0121            N0122            0.500000   0.03       0         0          0.0000    0
C0122            N0122            N0123            0.500000   0.03       0         0          0.0000    0
C0123            N0123            N0124            0.500000   0.03       0         0          0.0000    0
C0124            N0124            N0125            0.500000   0.03       0         0          0.0000    0
C0125            N0125            N0126            0.500000   0.03       0         0          0.0000    0
C0126            N0126            N0127            0.500000   0.03       0         0          0.0000    0
C0127            N0127            N0128            0.500000   0.03       0         0          0.0000    0
C0128            N0128            N0129            0.500000   0.03       0         0          0.0000    0
C0129            N0129            N0130            0.500000   0.03       0         0          0.0000    0
C0130            N0130            N0131            0.500000   0.03       0         0          0.0000    0
C0131            N0131            N0132            0.500000   0.03       0         0          0.0000    0
C0132            N0132            N0133            0.500000   0.03       0         0          0.0000    0
C0133            N0133            N0134            0.500000   0.03       0         0          0.0000    0
C0134            N0134            N0135            0.500000   0.03       0         0          0.0000    0
C0135            N0135            N0136            0.500000   0.03       0         0          0.0000    0
C0136            N0136            N0137            0.500000   0.03       0         0          0.0000    0
C0137            N0137            N0138            0.500000   0.03       0         0          0.0000    0
C0138            N0138            N0139            0.500000   0.03       0         0          0.0000    0
C0139            N0139            N0140            0.500000   0.03       0         0          0.0000    0
C0140            N0140            N0141            0.500000   0.03       0         0          0.0000    0
C0141            N0141            N0142            0.500000   0.03       0         0          0.0000    0
C0142            N0142            N0143            0.500000   0.03       0         0          0.0000    0
C0143            N0143            N0144            0.500000   0.03       0         0          0.0000    0
C0144            N0144            N0145            0.500000   0.03       0         0          0.0000    0
C0145            N0145            N0146            0.500000   0.03       0         0          0.0000    0
C0146            N0146            N0147            0.500000   0.03       0         0          0.0000    0
C0147            N0147            N0148            0.500000   0.03       0         0          0.0000    0
C0148            N0148            N0149            0.500000   0.03       0         0          0.0000    0
C0149            N0149            N0150            0.500000   0.03       0         0          0.0000    0
C0150            N0150            N0151            0.500000   0.03       0         0          0.0000    0
C0151            N0151            N0152            0.500000   0.03       0         0          0.0000    0
C0152            N0152            N0153            0.500000   0.03       0         0          0.0000    0
C0153            N0153            N0154            0.500000   0.03       0         0          0.0000    0
C0154            N0154            N0155            0.500000   0.03       0         0          0.0000    0
C0155            N0155            N0156            0.500000   0.03       0         0          0.0000    0
C0156            N0156            N0157            0.500000   0.03       0         0          0.0000    0
C0157            N0157            N0158            0.500000   0.03       0         0          0.0000    0
C0158            N0158            N0159            0.500000   0.03       0         0          0.0000    0
C0159            N0159            N0160            0.500000   0.03       0         0          0.0000    0
C0160            N0160            N0161            0.500000   0.03       0         0          0.0000    0
C0161            N0161            N0162            0.500000   0.03       0         0          0.0000    0
C0162            N0162            N0163            0.500000   0.03       0         0          0.0000    0
C0163            N0163            N0164            0.500000   0.03       0         0          0.0000    0
C0164            N0164            N0165            0.500000   0.03       0         0          0.0000    0
C0165            N0165            N0166            0.500000   0.03       0         0          0.0000    0
C0166            N0166            N0167            0.500000   0.03       0         0          0.0000    0
C0167            N0167            N0168            0.500000   0.03       0         0          0.0000    0
C0168            N0168            N0169            0.500000   0.03       0         0          0.0000    0
C0169            N0169            N0170            0.500000   0.03       0         0          0.0000    0
C0170            N0170            N0171            0.500000   0.03       0         0          0.0000    0
C0171            N0171            N0172            0.500000   0.03       0         0          0.0000    0
C0172            N0172            N0173            0.500000   0.03       0         0          0.0000    0
C0173            N0173            N0174            0.500000   0.03       0         0          0.0000    0
C0174            N0174            N0175            0.500000   0.03       0         0          0.0000    0
C0175            N0175            N0176            0.500000   0.03       0         0          0.0000    0
C0176            N0176            N0177            0.500000   0.03       0         0          0.0000    0
C0177            N0177            N0178            0.500000   0.03       0         0          0.0000    0
C0178            N0178            N0179            0.500000   0.03       0         0          0.0000    0
C0179            N0179            N0180            0.500000   0.03       0         0          0.0000    0
C0180            N0180            N0181            0.500000   0.03       0         0          0.0000    0
C0181            N0181            N0182            0.500000   0.03       0         0          0.0000    0
C0182            N0182            N0183            0.500000   0.03       0         0          0.0000    0
C0183            N0183            N0184            0.500000   0.03       0         0          0.0000    0
C0184            N0184            N0185            0.500000   0.03       0         0          0.0000    0
C0185            N0185            N0186            0.500000   0.03       0         0          0.0000    0
C0186            N0186            N0187            0.500000   0.03       0         0          0.0000    0
C0187            N0187            N0188            0.500000   0.03       0         0          0.0000    0
C0188            N0188            N0189            0.500000   0.03       0         0          0.0000    0
C0189            N0189            N0190            0.500000   0.03       0         0          0.0000    0
C0190            N0190            N0191            0.500000   0.03       0         0          0.0000    0
C0191            N0191            N0192            0.500000   0.03       0         0          0.0000    0
C0192            N0192            N0193            0.500000   0.03       0         0          0.0000    0
C0193            N0193            N0194            0.500000   0.03       0         0          0.0000    0
C0194            N0194            N0195            0.500000   0.03       0         0          0.0000    0
C0195            N0195            N0196            0.500000   0.03       0         0          0.0000    0
C0196            N0196            N0197            0.500000   0.03       0         0          0.0000    0
C0197            N0197            N0198            0.500000   0.03       0         0          0.0000    0
C0198            N0198            N0199            0.500000   0.03       0         0          0.0000    0
C0199            N0199            N0200            0.500000   0.03       0         0          0.0000    0
C0200            N0200            N0201            0.500000   0.03       0         0          0.0000    0
C0201            N0201            N0202            0.500000   0.03       0         0          0.0000    0
C0202            N0202            N0203            0.500000   0.03       0         0          0.0000    0
C0203            N0203            N0204            0.500000   0.03       0         0          0.0000    0
C0204            N0204            N0205            0.500000   0.03       0         0          0.0000    0
C0205            N0205            N0206            0.500000   0.03       0         0          0.0000    0
C0206            N0206            N0207            0.500000   0.03       0         0          0.0000    0
C0207            N0207            N0208            0.500000   0.03       0         0          0.0000    0
C0208            N0208            N0209            0.500000   0.03       0         0          0.0000    0
C0209            N0209            N0210            0.500000   0.03       0         0          0.0000    0
C0210            N0210            N0211            0.500000   0.03       0         0          0.0000    0
C0211            N0211            N0212            0.500000   0.03       0         0          0.0000    0
C0212            N0212            N0213            0.500000   0.03       0         0          0.0000    0
C0213            N0213            N0214            0.500000   0.03       0         0          0.0000    0
C0214            N0214            N0215            0.500000   0.03       0         0          0.0000    0
C0215            N0215            N0216            0.500000   0.03       0         0          0.0000    0
C0216            N0216            N0217            0.500000   0.03       0         0          0.0000    0
C0217            N0217            N0218            0.500000   0.03       0         0          0.0000    0
C0218            N0218            N0219            0.500000   0.03       0         0          0.0000    0
C0219            N0219            N0220            0.500000   0.03       0         0          0.0000    0
C0220            N0220            N0221            0.500000   0.03       0         0          0.0000    0
C0221            N0221            N0222            0.500000   0.03       0         0          0.0000    0
C0222            N0222            N0223            0.500000   0.03       0         0          0.0000    0
C0223            N0223            N0224            0.500000   0.03       0         0          0.0000    0
C0224            N0224            N0225            0.500000   0.03       0         0          0.0000    0
C0225            N0225            N0226            0.500000   0.03       0         0          0.0000    0
C0226            N0226            N0227            0.500000   0.03       0         0          0.0000    0
C0227            N0227            N0228            0.500000   0.03       0         0          0.0000    0
C0228            N0228            N0229            0.500000   0.03       0         0          0.0000    0
C0229            N0229            N0230            0.500000   0.03       0         0          0.0000    0
C0230            N0230            N0231            0.500000   0.03       0         0          0.0000    0
C0231            N0231            N0232            0.500000   0.03       0         0          0.0000    0
C0232            N0232            N0233            0.500000   0.03       0         0          0.0000    0
C0233            N0233            N0234            0.500000   0.03       0         0          0.0000    0
C0234            N0234            N0235            0.500000   0.03       0         0          0.0000    0
C0235            N0235            N0236            0.500000   0.03       0         0          0.0000    0
C0236            N0236            N0237            0.500000   0.03       0         0          0.0000    0
C0237            N0237            N0238            0.500000   0.03       0         0          0.0000    0
C0238            N0238            N0239            0.500000   0.03       0         0          0.0000    0
C0239            N0239            N0240            0.500000   0.03       0         0          0.0000    0
C0240            N0240            N0241            0.500000   0.03       0         0          0.0000    0
C0241            N0241            N0242            0.500000   0.03       0         0          0.0000    0
C0242            N0242            N0243            0.500000   0.03       0         0          0.0000    0
C0243            N0243            N0244            0.500000   0.03       0         0          0.0000    0
C0244            N0244            N0245            0.500000   0.03       0         0          0.0000    0
C0245            N0245            N0246            0.500000   0.03       0         0          0.0000    0
C0246            N0246            N0247            0.500000   0.03       0         0          0.0000    0
C0247            N0247            N0248            0.500000   0.03       0         0          0.0000    0
C0248            N0248            N0249            0.500000   0.03       0         0          0.0000    0
C0249            N0249            N0250            0.500000   0.03       0         0          0.0000    0
C0250            N0250            N0251            0.500000   0.03       0         0          0.0000    0
C0251            N0251            N0252            0.500000   0.03       0         0          0.0000    0
C0252            N0252            N0253            0.500000   0.03       0         0          0.0000    0
C0253            N0253            N0254            0.500000   0.03       0         0          0.0000    0
C0254            N0254            N0255            0.500000   0.03       0         0          0.0000    0
C0255            N0255            N0256            0.500000   0.03       0         0          0.0000    0
C0256            N0256            N0257            0.500000   0.03       0         0          0.0000    0
C0257            N0257            N0258            0.500000   0.03       0         0          0.0000    0
C0258            N0258            N0259            0.500000   0.03       0         0          0.0000    0
C0259            N0259            N0260            0.500000   0.03       0         0          0.0000    0
C0260            N0260            N0261            0.500000   0.03       0         0          0.0000    0
C0261            N0261            N0262            0.500000   0.03       0         0          0.0000    0
C0262            N0262            N0263            0.500000   0.03       0         0          0.0000    0
C0263            N0263            N0264            0.500000   0.03       0         0          0.0000    0
C0264            N0264            N0265            0.500000   0.03       0         0          0.0000    0
C0265            N0265            N0266            0.500000   0.03       0         0          0.0000    0
C0266            N0266            N0267            0.500000   0.03       0         0          0.0000    0
C0267            N0267            N0268            0.500000   0.03       0         0          0.0000    0
C0268            N0268            N0269            0.500000   0.03       0         0          0.0000    0
C0269            N0269            N0270            0.500000   0.03       0         0          0.0000    0
C0270            N0270            N0271            0.500000   0.03       0         0          0.0000    0
C0271            N0271            N0272            0.500000   0.03       0         0          0.0000    0
C0272            N0272            N0273            0.500000   0.03       0         0          0.0000    0
C0273            N0273            N0274            0.500000   0.03       0         0          0.0000    0
C0274            N0274            N0275            0.500000   0.03       0         0          0.0000    0
C0275            N0275            N0276            0.500000   0.03       0         0          0.0000    0
C0276            N0276            N0277            0.500000   0.03       0         0          0.0000    0
C0277            N0277            N0278            0.500000   0.03       0         0          0.0000    0
C0278            N0278            N0279            0.500000   0.03       0         0          0.0000    0
C0279            N0279            N0280            0.500000   0.03       0         0          0.0000    0
C0280            N0280            N0281            0.500000   0.03       0         0          0.0000    0
C0281            N0281            N0282            0.500000   0.03       0         0          0.0000    0
C0282            N0282            N0283            0.500000   0.03       0         0          0.0000    0
C0283            N0283            N0284            0.500000   0.03       0         0          0.0000    0
C0284            N0284            N0285            0.500000   0.03       0         0          0.0000    0
C0285            N0285            N0286            0.500000   0.03       0         0          0.0000    0
C0286            N0286            N0287            0.500000   0.03       0         0          0.0000    0
C0287            N0287            N0288            0.500000   0.03       0         0          0.0000    0
C0288            N0288            N0289            0.500000   0.03       0         0          0.0000    0
C0289            N0289            N0290            0.500000   0.03       0         0          0.0000    0
C0290            N0290            N0291            0.500000   0.03       0         0          0.0000    0
C0291            N0291            N0292            0.500000   0.03       0         0          0.0000    0
C0292            N0292            N0293            0.500000   0.03       0         0          0.0000    0
C0293            N0293            N0294            0.500000   0.03       0         0          0.0000    0
C0294            N0294            N0295            0.500000   0.03       0         0          0.0000    0
C0295            N0295            N0296            0.500000   0.03       0         0          0.0000    0
C0296            N0296            N0297            0.500000   0.03       0         0          0.0000    0
C0297            N0297            N0298            0.500000   0.03       0         0          0.0000    0
C0298            N0298            N0299            0.500000   0.03       0         0          0.0000    0
C0299            N0299            N0300            0.500000   0.03       0         0          0.0000    0
C0300            N0300            N0301            0.500000   0.03       0         0          0.0000    0
C0301            N0301            N0302            0.500000   0.03       0         0          0.0000    0
C0302            N0302            N0303            0.500000   0.03       0         0          0.0000    0
C0303            N0303            N0304            0.500000   0.03       0         0          0.0000    0
C0304            N0304            N0305            0.500000   0.03       0         0          0.0000    0
C0305            N0305            N0306            0.500000   0.03       0         0          0.0000    0
C0306            N0306            N0307            0.500000   0.03       0         0          0.0000    0
C0307            N0307            N0308            0.500000   0.03       0         0          0.0000    0
C0308            N0308            N0309            0.500000   0.03       0         0          0.0000    0
C0309            N0309            N0310            0.500000   0.03       0         0          0.0000    0
C0310            N0310            N0311            0.500000   0.03       0         0          0.0000    0
C0311            N0311            N0312            0.500000   0.03       0         0          0.0000    0
C0312            N0312            N0313            0.500000   0.03       0         0          0.0000    0
C0313            N0313            N0314            0.500000   0.03       0         0          0.0000    0
C0314            N0314            N0315            0.500000   0.03       0         0          0.0000    0
C0315            N0315            N0316            0.500000   0.03       0         0          0.0000    0
C0316            N0316            N0317            0.500000   0.03       0         0          0.0000    0
C0317            N0317            N0318            0.500000   0.03       0         0          0.0000    0
C0318            N0318            N0319            0.500000   0.03       0         0          0.0000    0
C0319            N0319            N0320            0.500000   0.03       0         0          0.0000    0
C0320            N0320            N0321            0.500000   0.03       0         0          0.0000    0
C0321            N0321            N0322            0.500000   0.03       0         0          0.0000    0
C0322            N0322            N0323            0.500000   0.03       0         0          0.0000    0
C0323            N0323            N0324            0.500000   0.03       0         0          0.0000    0
C0324            N0324            N0325            0.500000   0.03       0         0          0.0000    0
C0325            N0325            N0326            0.500000   0.03       0         0          0.0000    0
C0326            N0326            N0327            0.500000   0.03       0         0          0.0000    0
C0327            N0327            N0328            0.500000   0.03       0         0          0.0000    0
C0328            N0328            N0329            0.500000   0.03       0         0          0.0000    0
C0329            N0329            N0330            0.500000   0.03       0         0          0.0000    0
C0330            N0330            N0331            0.500000   0.03       0         0          0.0000    0
C0331            N0331            N0332            0.500000   0.03       0         0          0.0000    0
C0332            N0332            N0333            0.500000   0.03       0         0          0.0000    0
C0333            N0333            N0334            0.500000   0.03       0         0          0.0000    0
C0334            N0334            N0335            0.500000   0.03       0         0          0.0000    0
C0335            N0335            N0336            0.500000   0.03       0         0          0.0000    0
C0336            N0336            N0337            0.500000   0.03       0         0          0.0000    0
C0337            N0337            N0338            0.500000   0.03       0         0          0.0000    0
C0338            N0338            N0339            0.500000   0.03       0         0          0.0000    0
C0339            N0339            N0340            0.500000   0.03       0         0          0.0000    0
C0340            N0340            N0341            0.500000   0.03       0         0          0.0000    0
C0341            N0341            N0342            0.500000   0.03       0         0          0.0000    0
C0342            N0342            N0343            0.500000   0.03       0         0          0.0000    0
C0343            N0343            N0344            0.500000   0.03       0         0          0.0000    0
C0344            N0344            N0345            0.500000   0.03       0         0          0.0000    0
C0345            N0345            N0346            0.500000   0.03       0         0          0.0000    0
C0346            N0346            N0347            0.500000   0.03       0         0          0.0000    0
C0347            N0347            N0348            0.500000   0.03       0         0          0.0000    0
C0348            N0348            N0349            0.500000   0.03       0         0          0.0000    0
C0349            N0349            N0350            0.500000   0.03       0         0          0.0000    0
C0350            N0350            N0351            0.500000   0.03       0         0          0.0000    0
C0351            N0351            N0352            0.500000   0.03       0         0          0.0000    0
C0352            N0352            N0353            0.500000   0.03       0         0          0.0000    0
C0353            N0353            N0354            0.500000   0.03       0         0          0.0000    0
C0354            N0354            N0355            0.500000   0.03       0         0          0.0000    0
C0355            N0355            N0356            0.500000   0.03       0         0          0.0000    0
C0356            N0356            N0357            0.500000   0.03       0         0          0.0000    0
C0357            N0357            N0358            0.500000   0.03       0         0          0.0000    0
C0358            N0358            N0359            0.500000   0.03       0         0          0.0000    0
C0359            N0359            N0360            0.500000   0.03       0         0          0.0000    0
C0360            N0360            N0361            0.500000   0.03       0         0          0.0000    0
C0361            N0361            N0362            0.500000   0.03       0         0          0.0000    0
C0362            N0362            N0363            0.500000   0.03       0         0          0.0000    0
C0363            N0363            N0364            0.500000   0.03       0         0          0.0000    0
C0364            N0364            N0365            0.500000   0.03       0         0          0.0000    0
C0365            N0365            N0366            0.500000   0.03       0         0          0.0000    0
C0366            N0366            N0367            0.500000   0.03       0         0          0.0000    0
C0367            N0367            N0368            0.500000   0.03       0         0          0.0000    0
C0368            N0368            N0369            0.500000   0.03       0         0          0.0000    0
C0369            N0369            N0370            0.500000   0.03       0         0          0.0000    0
C0370            N0370            N0371            0.500000   0.03       0         0          0.0000    0
C0371            N0371            N0372            0.500000   0.03       0         0          0.0000    0
C0372            N0372            N0373            0.500000   0.03       0         0          0.0000    0
C0373            N0373            N0374            0.500000   0.03       0         0          0.0000    0
C0374            N0374            N0375            0.500000   0.03       0         0          0.0000    0
C0375            N0375            N0376            0.500000   0.03       0         0          0.0000    0
C0376            N0376            N0377            0.500000   0.03       0         0          0.0000    0
C0377            N0377            N0378            0.500000   0.03       0         0          0.0000    0
C0378            N0378            N0379            0.500000   0.03       0         0          0.0000    0
C0379            N0379            N0380            0.500000   0.03       0         0          0.0000    0
C0380            N0380            N0381            0.500000   0.03       0         0          0.0000    0
C0381            N0381            N0382            0.500000   0.03       0         0          0.0000    0
C0382            N0382            N0383            0.500000   0.03       0         0          0.0000    0
C0383            N0383            N0384            0.500000   0.03       0         0          0.0000    0
C0384            N0384            N0385            0.500000   0.03       0         0          0.0000    0
C0385            N0385            N0386            0.500000   0.03       0         0          0.0000    0
C0386            N0386            N0387            0.500000   0.03       0         0          0.0000    0
C0387            N0387            N0388            0.500000   0.03       0         0          0.0000    0
C0388            N0388            N0389            0.500000   0.03       0         0          0.0000    0
C0389            N0389            N0390            0.500000   0.03       0         0          0.0000    0
C0390            N0390            N0391            0.500000   0.03       0         0          0.0000    0
C0391            N0391            N0392            0.500000   0.03       0         0          0.0000    0
C0392            N0392            N0393            0.500000   0.03       0         0          0.0000    0
C0393            N0393            N0394            0.500000   0.03       0         0          0.0000    0
C0394            N0394            N0395            0.500000   0.03       0         0          0.0000    0
C0395            N0395            N0396            0.500000   0.03       0         0          0.0000    0
C0396            N0396            N0397            0.500000   0.03       0         0          0.0000    0
C0397            N0397            N0398            0.500000   0.03       0         0          0.0000    0
C0398            N0398            N0399            0.500000   0.03       0         0          0.0000    0
C0399            N0399            N0400            0.500000   0.03       0         0          0.0000    0

[XSECTIONS]
;;Link           Shape        Geom1     Geom2     Geom3  Geom4  Barrels
C0000            RECT_OPEN    7.923     9.5844    0      0      1
C0001            RECT_OPEN    7.923     9.5740    0      0      1
C0002            RECT_OPEN    7.923     9.5633    0      0      1
C0003            RECT_OPEN    7.923     9.5524    0      0      1
C0004            RECT_OPEN    7.923     9.5413    0      0      1
C0005            RECT_OPEN    7.923     9.5300    0      0      1
C0006            RECT_OPEN    7.923     9.5184    0      0      1
C0007            RECT_OPEN    7.923     9.5067    0      0      1
C0008            RECT_OPEN    7.923     9.4947    0      0      1
C0009            RECT_OPEN    7.923     9.4825    0      0      1
C0010            RECT_OPEN    7.923     9.4700    0      0      1
C0011            RECT_OPEN    7.923     9.4574    0      0      1
C0012            RECT_OPEN    7.923     9.4445    0      0      1
C0013            RECT_OPEN    7.923     9.4313    0      0      1
C0014            RECT_OPEN    7.923     9.4180    0      0      1
C0015            RECT_OPEN    7.923     9.4043    0      0      1
C0016            RECT_OPEN    7.923     9.3905    0      0      1
C0017            RECT_OPEN    7.923     9.3764    0      0      1
C0018            RECT_OPEN    7.923     9.3620    0      0      1
C0019            RECT_OPEN    7.923     9.3474    0      0      1
C0020            RECT_OPEN    7.923     9.3326    0      0      1
C0021            RECT_OPEN    7.923     9.3175    0      0      1
C0022            RECT_OPEN    7.923     9.3021    0      0      1
C0023            RECT_OPEN    7.923     9.2865    0      0      1
C0024            RECT_OPEN    7.923     9.2706    0      0      1
C0025            RECT_OPEN    7.923     9.2545    0      0      1
C0026            RECT_OPEN    7.923     9.2381    0      0      1
C0027            RECT_OPEN    7.923     9.2215    0      0      1
C0028            RECT_OPEN    7.923     9.2045    0      0      1
C0029            RECT_OPEN    7.923     9.1873    0      0      1
C0030            RECT_OPEN    7.923     9.1699    0      0      1
C0031            RECT_OPEN    7.923     9.1522    0      0      1
C0032            RECT_OPEN    7.923     9.1342    0      0      1
C0033            RECT_OPEN    7.923     9.1159    0      0      1
C0034            RECT_OPEN    7.923     9.0974    0      0      1
C0035            RECT_OPEN    7.923     9.0786    0      0      1
C0036            RECT_OPEN    7.923     9.0595    0      0      1
C0037            RECT_OPEN    7.923     9.0401    0      0      1
C0038            RECT_OPEN    7.923     9.0205    0      0      1
C0039            RECT_OPEN    7.923     9.0006    0      0      1
C0040            RECT_OPEN    7.923     8.9804    0      0      1
C0041            RECT_OPEN    7.923     8.9599    0      0      1
C0042            RECT_OPEN    7.923     8.9392    0      0      1
C0043            RECT_OPEN    7.923     8.9182    0      0      1
C0044            RECT_OPEN    7.923     8.8968    0      0      1
C0045            RECT_OPEN    7.923     8.8753    0      0      1
C0046            RECT_OPEN    7.923     8.8534    0      0      1
C0047            RECT_OPEN    7.923     8.8313    0      0      1
C0048            RECT_OPEN    7.923     8.8088    0      0      1
C0049            RECT_OPEN    7.923     8.7861    0      0      1
C0050            RECT_OPEN    7.923     8.7632    0      0      1
C0051            RECT_OPEN    7.923     8.7399    0      0      1
C0052            RECT_OPEN    7.923     8.7164    0      0      1
C0053            RECT_OPEN    7.923     8.6926    0      0      1
C0054            RECT_OPEN    7.923     8.6685    0      0      1
C0055            RECT_OPEN    7.923     8.6442    0      0      1
C0056            RECT_OPEN    7.923     8.6195    0      0      1
C0057            RECT_OPEN    7.923     8.5946    0      0      1
C0058            RECT_OPEN    7.923     8.5695    0      0      1
C0059            RECT_OPEN    7.923     8.5440    0      0      1
C0060            RECT_OPEN    7.923     8.5183    0      0      1
C0061            RECT_OPEN    7.923     8.4924    0      0      1
C0062            RECT_OPEN    7.923     8.4661    0      0      1
C0063            RECT_OPEN    7.923     8.4396    0      0      1
C0064            RECT_OPEN    7.923     8.4129    0      0      1
C0065            RECT_OPEN    7.923     8.3859    0      0      1
C0066            RECT_OPEN    7.923     8.3586    0      0      1
C0067            RECT_OPEN    7.923     8.3311    0      0      1
C0068            RECT_OPEN    7.923     8.3033    0      0      1
C0069            RECT_OPEN    7.923     8.2753    0      0      1
C0070            RECT_OPEN    7.923     8.2471    0      0      1
C0071            RECT_OPEN    7.923     8.2186    0      0      1
C0072            RECT_OPEN    7.923     8.1898    0      0      1
C0073            RECT_OPEN    7.923     8.1609    0      0      1
C0074            RECT_OPEN    7.923     8.1317    0      0      1
C0075            RECT_OPEN    7.923     8.1022    0      0      1
C0076            RECT_OPEN    7.923     8.0726    0      0      1
C0077            RECT_OPEN    7.923     8.0427    0      0      1
C0078            RECT_OPEN    7.923     8.0127    0      0      1
C0079            RECT_OPEN    7.923     7.9824    0      0      1
C0080            RECT_OPEN    7.923     7.9519    0      0      1
C0081            RECT_OPEN    7.923     7.9212    0      0      1
C0082            RECT_OPEN    7.923     7.8903    0      0      1
C0083            RECT_OPEN    7.923     7.8592    0      0      1
C0084            RECT_OPEN    7.923     7.8279    0      0      1
C0085            RECT_OPEN    7.923     7.7965    0      0      1
C0086            RECT_OPEN    7.923     7.7649    0      0      1
C0087            RECT_OPEN    7.923     7.7331    0      0      1
C0088            RECT_OPEN    7.923     7.7011    0      0      1
C0089            RECT_OPEN    7.923     7.6690    0      0      1
C0090            RECT_OPEN    7.923     7.6367    0      0      1
C0091            RECT_OPEN    7.923     7.6043    0      0      1
C0092            RECT_OPEN    7.923     7.5717    0      0      1
C0093            RECT_OPEN    7.923     7.5391    0      0      1
C0094            RECT_OPEN    7.923     7.5062    0      0      1
C0095            RECT_OPEN    7.923     7.4733    0      0      1
C0096            RECT_OPEN    7.923     7.4402    0      0      1
C0097            RECT_OPEN    7.923     7.4070    0      0      1
C0098            RECT_OPEN    7.923     7.3738    0      0      1
C0099            RECT_OPEN    7.923     7.3404    0      0      1
C0100            RECT_OPEN    7.923     7.3070    0      0      1
C0101            RECT_OPEN    7.923     7.2734    0      0      1
C0102            RECT_OPEN    7.923     7.2398    0      0      1
C0103            RECT_OPEN    7.923     7.2061    0      0      1
C0104            RECT_OPEN    7.923     7.1724    0      0      1
C0105            RECT_OPEN    7.923     7.1386    0      0      1
C0106            RECT_OPEN    7.923     7.1048    0      0      1
C0107            RECT_OPEN    7.923     7.0710    0      0      1
C0108            RECT_OPEN    7.923     7.0371    0      0      1
C0109            RECT_OPEN    7.923     7.0032    0      0      1
C0110            RECT_OPEN    7.923     6.9693    0      0      1
C0111            RECT_OPEN    7.923     6.9354    0      0      1
C0112            RECT_OPEN    7.923     6.9015    0      0      1
C0113            RECT_OPEN    7.923     6.8676    0      0      1
C0114            RECT_OPEN    7.923     6.8338    0      0      1
C0115            RECT_OPEN    7.923     6.7999    0      0      1
C0116            RECT_OPEN    7.923     6.7662    0      0      1
C0117            RECT_OPEN    7.923     6.7324    0      0      1
C0118            RECT_OPEN    7.923     6.6988    0      0      1
C0119            RECT_OPEN    7.923     6.6652    0      0      1
C0120            RECT_OPEN    7.923     6.6317    0      0      1
C0121            RECT_OPEN    7.923     6.5982    0      0      1
C0122            RECT_OPEN    7.923     6.5649    0      0      1
C0123            RECT_OPEN    7.923     6.5317    0      0      1
C0124            RECT_OPEN    7.923     6.4986    0      0      1
C0125            RECT_OPEN    7.923     6.4656    0      0      1
C0126            RECT_OPEN    7.923     6.4327    0      0      1
C0127            RECT_OPEN    7.923     6.4000    0      0      1
C0128            RECT_OPEN    7.923     6.3675    0      0      1
C0129            RECT_OPEN    7.923     6.3351    0      0      1
C0130            RECT_OPEN    7.923     6.3029    0      0      1
C0131            RECT_OPEN    7.923     6.2709    0      0      1
C0132            RECT_OPEN    7.923     6.2390    0      0      1
C0133            RECT_OPEN    7.923     6.2074    0      0      1
C0134            RECT_OPEN    7.923     6.1760    0      0      1
C0135            RECT_OPEN    7.923     6.1448    0      0      1
C0136            RECT_OPEN    7.923     6.1138    0      0      1
C0137            RECT_OPEN    7.923     6.0831    0      0      1
C0138            RECT_OPEN    7.923     6.0526    0      0      1
C0139            RECT_OPEN    7.923     6.0224    0      0      1
C0140            RECT_OPEN    7.923     5.9925    0      0      1
C0141            RECT_OPEN    7.923     5.9628    0      0      1
C0142            RECT_OPEN    7.923     5.9334    0      0      1
C0143            RECT_OPEN    7.923     5.9044    0      0      1
C0144            RECT_OPEN    7.923     5.8756    0      0      1
C0145            RECT_OPEN    7.923     5.8471    0      0      1
C0146            RECT_OPEN    7.923     5.8190    0      0      1
C0147            RECT_OPEN    7.923     5.7912    0      0      1
C0148            RECT_OPEN    7.923     5.7638    0      0      1
C0149            RECT_OPEN    7.923     5.7367    0      0      1
C0150            RECT_OPEN    7.923     5.7100    0      0      1
C0151            RECT_OPEN    7.923     5.6836    0      0      1
C0152            RECT_OPEN    7.923     5.6576    0      0      1
C0153            RECT_OPEN    7.923     5.6320    0      0      1
C0154            RECT_OPEN    7.923     5.6068    0      0      1
C0155            RECT_OPEN    7.923     5.5821    0      0      1
C0156            RECT_OPEN    7.923     5.5577    0      0      1
C0157            RECT_OPEN    7.923     5.5338    0      0      1
C0158            RECT_OPEN    7.923     5.5102    0      0      1
C0159            RECT_OPEN    7.923     5.4872    0      0      1
C0160            RECT_OPEN    7.923     5.4646    0      0      1
C0161            RECT_OPEN    7.923     5.4424    0      0      1
C0162            RECT_OPEN    7.923     5.4207    0      0      1
C0163            RECT_OPEN    7.923     5.3995    0      0      1
C0164            RECT_OPEN    7.923     5.3787    0      0      1
C0165            RECT_OPEN    7.923     5.3585    0      0      1
C0166            RECT_OPEN    7.923     5.3387    0      0      1
C0167            RECT_OPEN    7.923     5.3194    0      0      1
C0168            RECT_OPEN    7.923     5.3007    0      0      1
C0169            RECT_OPEN    7.923     5.2824    0      0      1
C0170            RECT_OPEN    7.923     5.2647    0      0      1
C0171            RECT_OPEN    7.923     5.2475    0      0      1
C0172            RECT_OPEN    7.923     5.2308    0      0      1
C0173            RECT_OPEN    7.923     5.2147    0      0      1
C0174            RECT_OPEN    7.923     5.1991    0      0      1
C0175            RECT_OPEN    7.923     5.1841    0      0      1
C0176            RECT_OPEN    7.923     5.1696    0      0      1
C0177            RECT_OPEN    7.923     5.1557    0      0      1
C0178            RECT_OPEN    7.923     5.1424    0      0      1
C0179            RECT_OPEN    7.923     5.1296    0      0      1
C0180            RECT_OPEN    7.923     5.1174    0      0      1
C0181            RECT_OPEN    7.923     5.1058    0      0      1
C0182            RECT_OPEN    7.923     5.0948    0      0      1
C0183            RECT_OPEN    7.923     5.0844    0      0      1
C0184            RECT_OPEN    7.923     5.0745    0      0      1
C0185            RECT_OPEN    7.923     5.0653    0      0      1
C0186            RECT_OPEN    7.923     5.0566    0      0      1
C0187            RECT_OPEN    7.923     5.0486    0      0      1
C0188            RECT_OPEN    7.923     5.0412    0      0      1
C0189            RECT_OPEN    7.923     5.0343    0      0      1
C0190            RECT_OPEN    7.923     5.0281    0      0      1
C0191            RECT_OPEN    7.923     5.0225    0      0      1
C0192            RECT_OPEN    7.923     5.0175    0      0      1
C0193            RECT_OPEN    7.923     5.0132    0      0      1
C0194            RECT_OPEN    7.923     5.0094    0      0      1
C0195            RECT_OPEN    7.923     5.0063    0      0      1
C0196            RECT_OPEN    7.923     5.0038    0      0      1
C0197            RECT_OPEN    7.923     5.0020    0      0      1
C0198            RECT_OPEN    7.923     5.0007    0      0      1
C0199            RECT_OPEN    7.923     5.0001    0      0      1
C0200            RECT_OPEN    7.923     5.0001    0      0      1
C0201            RECT_OPEN    7.923     5.0007    0      0      1
C0202            RECT_OPEN    7.923     5.0020    0      0      1
C0203            RECT_OPEN    7.923     5.0038    0      0      1
C0204            RECT_OPEN    7.923     5.0063    0      0      1
C0205            RECT_OPEN    7.923     5.0094    0      0      1
C0206            RECT_OPEN    7.923     5.0132    0      0      1
C0207            RECT_OPEN    7.923     5.0175    0      0      1
C0208            RECT_OPEN    7.923     5.0225    0      0      1
C0209            RECT_OPEN    7.923     5.0281    0      0      1
C0210            RECT_OPEN    7.923     5.0343    0      0      1
C0211            RECT_OPEN    7.923     5.0412    0      0      1
C0212            RECT_OPEN    7.923     5.0486    0      0      1
C0213            RECT_OPEN    7.923     5.0566    0      0      1
C0214            RECT_OPEN    7.923     5.0653    0      0      1
C0215            RECT_OPEN    7.923     5.0745    0      0      1
C0216            RECT_OPEN    7.923     5.0844    0      0      1
C0217            RECT_OPEN    7.923     5.0948    0      0      1
C0218            RECT_OPEN    7.923     5.1058    0      0      1
C0219            RECT_OPEN    7.923     5.1174    0      0      1
C0220            RECT_OPEN    7.923     5.1296    0      0      1
C0221            RECT_OPEN    7.923     5.1424    0      0      1
C0222            RECT_OPEN    7.923     5.1557    0      0      1
C0223            RECT_OPEN    7.923     5.1696    0      0      1
C0224            RECT_OPEN    7.923     5.1841    0      0      1
C0225            RECT_OPEN    7.923     5.1991    0      0      1
C0226            RECT_OPEN    7.923     5.2147    0      0      1
C0227            RECT_OPEN    7.923     5.2308    0      0      1
C0228            RECT_OPEN    7.923     5.2475    0      0      1
C0229            RECT_OPEN    7.923     5.2647    0      0      1
C0230            RECT_OPEN    7.923     5.2824    0      0      1
C0231            RECT_OPEN    7.923     5.3007    0      0      1
C0232            RECT_OPEN    7.923     5.3194    0      0      1
C0233            RECT_OPEN    7.923     5.3387    0      0      1
C0234            RECT_OPEN    7.923     5.3585    0      0      1
C0235            RECT_OPEN    7.923     5.3787    0      0      1
C0236            RECT_OPEN    7.923     5.3995    0      0      1
C0237            RECT_OPEN    7.923     5.4207    0      0      1
C0238            RECT_OPEN    7.923     5.4424    0      0      1
C0239            RECT_OPEN    7.923     5.4646    0      0      1
C0240            RECT_OPEN    7.923     5.4872    0      0      1
C0241            RECT_OPEN    7.923     5.5102    0      0      1
C0242            RECT_OPEN    7.923     5.5338    0      0      1
C0243            RECT_OPEN    7.923     5.5577    0      0      1
C0244            RECT_OPEN    7.923     5.5821    0      0      1
C0245            RECT_OPEN    7.923     5.6068    0      0      1
C0246            RECT_OPEN    7.923     5.6320    0      0      1
C0247            RECT_OPEN    7.923     5.6576    0      0      1
C0248            RECT_OPEN    7.923     5.6836    0      0      1
C0249            RECT_OPEN    7.923     5.7100    0      0      1
C0250            RECT_OPEN    7.923     5.7367    0      0      1
C0251            RECT_OPEN    7.923     5.7638    0      0      1
C0252            RECT_OPEN    7.923     5.7912    0      0      1
C0253            RECT_OPEN    7.923     5.8190    0      0      1
C0254            RECT_OPEN    7.923     5.8471    0      0      1
C0255            RECT_OPEN    7.923     5.8756    0      0      1
C0256            RECT_OPEN    7.923     5.9044    0      0      1
C0257            RECT_OPEN    7.923     5.9334    0      0      1
C0258            RECT_OPEN    7.923     5.9628    0      0      1
C0259            RECT_OPEN    7.923     5.9925    0      0      1
C0260            RECT_OPEN    7.923     6.0224    0      0      1
C0261            RECT_OPEN    7.923     6.0526    0      0      1
C0262            RECT_OPEN    7.923     6.0831    0      0      1
C0263            RECT_OPEN    7.923     6.1138    0      0      1
C0264            RECT_OPEN    7.923     6.1448    0      0      1
C0265            RECT_OPEN    7.923     6.1760    0      0      1
C0266            RECT_OPEN    7.923     6.2074    0      0      1
C0267            RECT_OPEN    7.923     6.2390    0      0      1
C0268            RECT_OPEN    7.923     6.2709    0      0      1
C0269            RECT_OPEN    7.923     6.3029    0      0      1
C0270            RECT_OPEN    7.923     6.3351    0      0      1
C0271            RECT_OPEN    7.923     6.3675    0      0      1
C0272            RECT_OPEN    7.923     6.4000    0      0      1
C0273            RECT_OPEN    7.923     6.4327    0      0      1
C0274            RECT_OPEN    7.923     6.4656    0      0      1
C0275            RECT_OPEN    7.923     6.4986    0      0      1
C0276            RECT_OPEN    7.923     6.5317    0      0      1
C0277            RECT_OPEN    7.923     6.5649    0      0      1
C0278            RECT_OPEN    7.923     6.5982    0      0      1
C0279            RECT_OPEN    7.923     6.6317    0      0      1
C0280            RECT_OPEN    7.923     6.6652    0      0      1
C0281            RECT_OPEN    7.923     6.6988    0      0      1
C0282            RECT_OPEN    7.923     6.7324    0      0      1
C0283            RECT_OPEN    7.923     6.7662    0      0      1
C0284            RECT_OPEN    7.923     6.7999    0      0      1
C0285            RECT_OPEN    7.923     6.8338    0      0      1
C0286            RECT_OPEN    7.923     6.8676    0      0      1
C0287            RECT_OPEN    7.923     6.9015    0      0      1
C0288            RECT_OPEN    7.923     6.9354    0      0      1
C0289            RECT_OPEN    7.923     6.9693    0      0      1
C0290            RECT_OPEN    7.923     7.0032    0      0      1
C0291            RECT_OPEN    7.923     7.0371    0      0      1
C0292            RECT_OPEN    7.923     7.0710    0      0      1
C0293            RECT_OPEN    7.923     7.1048    0      0      1
C0294            RECT_OPEN    7.923     7.1386    0      0      1
C0295            RECT_OPEN    7.923     7.1724    0      0      1
C0296            RECT_OPEN    7.923     7.2061    0      0      1
C0297            RECT_OPEN    7.923     7.2398    0      0      1
C0298            RECT_OPEN    7.923     7.2734    0      0      1
C0299            RECT_OPEN    7.923     7.3070    0      0      1
C0300            RECT_OPEN    7.923     7.3404    0      0      1
C0301            RECT_OPEN    7.923     7.3738    0      0      1
C0302            RECT_OPEN    7.923     7.4070    0      0      1
C0303            RECT_OPEN    7.923     7.4402    0      0      1
C0304            RECT_OPEN    7.923     7.4733    0      0      1
C0305            RECT_OPEN    7.923     7.5062    0      0      1
C0306            RECT_OPEN    7.923     7.5391    0      0      1
C0307            RECT_OPEN    7.923     7.5717    0      0      1
C0308            RECT_OPEN    7.923     7.6043    0      0      1
C0309            RECT_OPEN    7.923     7.6367    0      0      1
C0310            RECT_OPEN    7.923     7.6690    0      0      1
C0311            RECT_OPEN    7.923     7.7011    0      0      1
C0312            RECT_OPEN    7.923     7.7331    0      0      1
C0313            RECT_OPEN    7.923     7.7649    0      0      1
C0314            RECT_OPEN    7.923     7.7965    0      0      1
C0315            RECT_OPEN    7.923     7.8279    0      0      1
C0316            RECT_OPEN    7.923     7.8592    0      0      1
C0317            RECT_OPEN    7.923     7.8903    0      0      1
C0318            RECT_OPEN    7.923     7.9212    0      0      1
C0319            RECT_OPEN    7.923     7.9519    0      0      1
C0320            RECT_OPEN    7.923     7.9824    0      0      1
C0321            RECT_OPEN    7.923     8.0127    0      0      1
C0322            RECT_OPEN    7.923     8.0427    0      0      1
C0323            RECT_OPEN    7.923     8.0726    0      0      1
C0324            RECT_OPEN    7.923     8.1022    0      0      1
C0325            RECT_OPEN    7.923     8.1317    0      0      1
C0326            RECT_OPEN    7.923     8.1609    0      0      1
C0327            RECT_OPEN    7.923     8.1898    0      0      1
C0328            RECT_OPEN    7.923     8.2186    0      0      1
C0329            RECT_OPEN    7.923     8.2471    0      0      1
C0330            RECT_OPEN    7.923     8.2753    0      0      1
C0331            RECT_OPEN    7.923     8.3033    0      0      1
C0332            RECT_OPEN    7.923     8.3311    0      0      1
C0333            RECT_OPEN    7.923     8.3586    0      0      1
C0334            RECT_OPEN    7.923     8.3859    0      0      1
C0335            RECT_OPEN    7.923     8.4129    0      0      1
C0336            RECT_OPEN    7.923     8.4396    0      0      1
C0337            RECT_OPEN    7.923     8.4661    0      0      1
C0338            RECT_OPEN    7.923     8.4924    0      0      1
C0339            RECT_OPEN    7.923     8.5183    0      0      1
C0340            RECT_OPEN    7.923     8.5440    0      0      1
C0341            RECT_OPEN    7.923     8.5695    0      0      1
C0342            RECT_OPEN    7.923     8.5946    0      0      1
C0343            RECT_OPEN    7.923     8.6195    0      0      1
C0344            RECT_OPEN    7.923     8.6442    0      0      1
C0345            RECT_OPEN    7.923     8.6685    0      0      1
C0346            RECT_OPEN    7.923     8.6926    0      0      1
C0347            RECT_OPEN    7.923     8.7164    0      0      1
C0348            RECT_OPEN    7.923     8.7399    0      0      1
C0349            RECT_OPEN    7.923     8.7632    0      0      1
C0350            RECT_OPEN    7.923     8.7861    0      0      1
C0351            RECT_OPEN    7.923     8.8088    0      0      1
C0352            RECT_OPEN    7.923     8.8313    0      0      1
C0353            RECT_OPEN    7.923     8.8534    0      0      1
C0354            RECT_OPEN    7.923     8.8753    0      0      1
C0355            RECT_OPEN    7.923     8.8968    0      0      1
C0356            RECT_OPEN    7.923     8.9182    0      0      1
C0357            RECT_OPEN    7.923     8.9392    0      0      1
C0358            RECT_OPEN    7.923     8.9599    0      0      1
C0359            RECT_OPEN    7.923     8.9804    0      0      1
C0360            RECT_OPEN    7.923     9.0006    0      0      1
C0361            RECT_OPEN    7.923     9.0205    0      0      1
C0362            RECT_OPEN    7.923     9.0401    0      0      1
C0363            RECT_OPEN    7.923     9.0595    0      0      1
C0364            RECT_OPEN    7.923     9.0786    0      0      1
C0365            RECT_OPEN    7.923     9.0974    0      0      1
C0366            RECT_OPEN    7.923     9.1159    0      0      1
C0367            RECT_OPEN    7.923     9.1342    0      0      1
C0368            RECT_OPEN    7.923     9.1522    0      0      1
C0369            RECT_OPEN    7.923     9.1699    0      0      1
C0370            RECT_OPEN    7.923     9.1873    0      0      1
C0371            RECT_OPEN    7.923     9.2045    0      0      1
C0372            RECT_OPEN    7.923     9.2215    0      0      1
C0373            RECT_OPEN    7.923     9.2381    0      0      1
C0374            RECT_OPEN    7.923     9.2545    0      0      1
C0375            RECT_OPEN    7.923     9.2706    0      0      1
C0376            RECT_OPEN    7.923     9.2865    0      0      1
C0377            RECT_OPEN    7.923     9.3021    0      0      1
C0378            RECT_OPEN    7.923     9.3175    0      0      1
C0379            RECT_OPEN    7.923     9.3326    0      0      1
C0380            RECT_OPEN    7.923     9.3474    0      0      1
C0381            RECT_OPEN    7.923     9.3620    0      0      1
C0382            RECT_OPEN    7.923     9.3764    0      0      1
C0383            RECT_OPEN    7.923     9.3905    0      0      1
C0384            RECT_OPEN    7.923     9.4043    0      0      1
C0385            RECT_OPEN    7.923     9.4180    0      0      1
C0386            RECT_OPEN    7.923     9.4313    0      0      1
C0387            RECT_OPEN    7.923     9.4445    0      0      1
C0388            RECT_OPEN    7.923     9.4574    0      0      1
C0389            RECT_OPEN    7.923     9.4700    0      0      1
C0390            RECT_OPEN    7.923     9.4825    0      0      1
C0391            RECT_OPEN    7.923     9.4947    0      0      1
C0392            RECT_OPEN    7.923     9.5067    0      0      1
C0393            RECT_OPEN    7.923     9.5184    0      0      1
C0394            RECT_OPEN    7.923     9.5300    0      0      1
C0395            RECT_OPEN    7.923     9.5413    0      0      1
C0396            RECT_OPEN    7.923     9.5524    0      0      1
C0397            RECT_OPEN    7.923     9.5633    0      0      1
C0398            RECT_OPEN    7.923     9.5740    0      0      1
C0399            RECT_OPEN    7.923     9.5844    0      0      1

[INFLOWS]
;;Node           Constituent  TimeSeries  Type  Mfactor  Sfactor  Baseline  Pattern
N0000            FLOW         ""          FLOW  1.0      1.0      20.000000

[COORDINATES]
;;Node           X-Coord      Y-Coord
N0000            0.0000       0.0000      
N0001            0.5000       0.0000      
N0002            1.0000       0.0000      
N0003            1.5000       0.0000      
N0004            2.0000       0.0000      
N0005            2.5000       0.0000      
N0006            3.0000       0.0000      
N0007            3.5000       0.0000      
N0008            4.0000       0.0000      
N0009            4.5000       0.0000      
N0010            5.0000       0.0000      
N0011            5.5000       0.0000      
N0012            6.0000       0.0000      
N0013            6.5000       0.0000      
N0014            7.0000       0.0000      
N0015            7.5000       0.0000      
N0016            8.0000       0.0000      
N0017            8.5000       0.0000      
N0018            9.0000       0.0000      
N0019            9.5000       0.0000      
N0020            10.0000      0.0000      
N0021            10.5000      0.0000      
N0022            11.0000      0.0000      
N0023            11.5000      0.0000      
N0024            12.0000      0.0000      
N0025            12.5000      0.0000      
N0026            13.0000      0.0000      
N0027            13.5000      0.0000      
N0028            14.0000      0.0000      
N0029            14.5000      0.0000      
N0030            15.0000      0.0000      
N0031            15.5000      0.0000      
N0032            16.0000      0.0000      
N0033            16.5000      0.0000      
N0034            17.0000      0.0000      
N0035            17.5000      0.0000      
N0036            18.0000      0.0000      
N0037            18.5000      0.0000      
N0038            19.0000      0.0000      
N0039            19.5000      0.0000      
N0040            20.0000      0.0000      
N0041            20.5000      0.0000      
N0042            21.0000      0.0000      
N0043            21.5000      0.0000      
N0044            22.0000      0.0000      
N0045            22.5000      0.0000      
N0046            23.0000      0.0000      
N0047            23.5000      0.0000      
N0048            24.0000      0.0000      
N0049            24.5000      0.0000      
N0050            25.0000      0.0000      
N0051            25.5000      0.0000      
N0052            26.0000      0.0000      
N0053            26.5000      0.0000      
N0054            27.0000      0.0000      
N0055            27.5000      0.0000      
N0056            28.0000      0.0000      
N0057            28.5000      0.0000      
N0058            29.0000      0.0000      
N0059            29.5000      0.0000      
N0060            30.0000      0.0000      
N0061            30.5000      0.0000      
N0062            31.0000      0.0000      
N0063            31.5000      0.0000      
N0064            32.0000      0.0000      
N0065            32.5000      0.0000      
N0066            33.0000      0.0000      
N0067            33.5000      0.0000      
N0068            34.0000      0.0000      
N0069            34.5000      0.0000      
N0070            35.0000      0.0000      
N0071            35.5000      0.0000      
N0072            36.0000      0.0000      
N0073            36.5000      0.0000      
N0074            37.0000      0.0000      
N0075            37.5000      0.0000      
N0076            38.0000      0.0000      
N0077            38.5000      0.0000      
N0078            39.0000      0.0000      
N0079            39.5000      0.0000      
N0080            40.0000      0.0000      
N0081            40.5000      0.0000      
N0082            41.0000      0.0000      
N0083            41.5000      0.0000      
N0084            42.0000      0.0000      
N0085            42.5000      0.0000      
N0086            43.0000      0.0000      
N0087            43.5000      0.0000      
N0088            44.0000      0.0000      
N0089            44.5000      0.0000      
N0090            45.0000      0.0000      
N0091            45.5000      0.0000      
N0092            46.0000      0.0000      
N0093            46.5000      0.0000      
N0094            47.0000      0.0000      
N0095            47.5000      0.0000      
N0096            48.0000      0.0000      
N0097            48.5000      0.0000      
N0098            49.0000      0.0000      
N0099            49.5000      0.0000      
N0100            50.0000      0.0000      
N0101            50.5000      0.0000      
N0102            51.0000      0.0000      
N0103            51.5000      0.0000      
N0104            52.0000      0.0000      
N0105            52.5000      0.0000      
N0106            53.0000      0.0000      
N0107            53.5000      0.0000      
N0108            54.0000      0.0000      
N0109            54.5000      0.0000      
N0110            55.0000      0.0000      
N0111            55.5000      0.0000      
N0112            56.0000      0.0000      
N0113            56.5000      0.0000      
N0114            57.0000      0.0000      
N0115            57.5000      0.0000      
N0116            58.0000      0.0000      
N0117            58.5000      0.0000      
N0118            59.0000      0.0000      
N0119            59.5000      0.0000      
N0120            60.0000      0.0000      
N0121            60.5000      0.0000      
N0122            61.0000      0.0000      
N0123            61.5000      0.0000      
N0124            62.0000      0.0000      
N0125            62.5000      0.0000      
N0126            63.0000      0.0000      
N0127            63.5000      0.0000      
N0128            64.0000      0.0000      
N0129            64.5000      0.0000      
N0130            65.0000      0.0000      
N0131            65.5000      0.0000      
N0132            66.0000      0.0000      
N0133            66.5000      0.0000      
N0134            67.0000      0.0000      
N0135            67.5000      0.0000      
N0136            68.0000      0.0000      
N0137            68.5000      0.0000      
N0138            69.0000      0.0000      
N0139            69.5000      0.0000      
N0140            70.0000      0.0000      
N0141            70.5000      0.0000      
N0142            71.0000      0.0000      
N0143            71.5000      0.0000      
N0144            72.0000      0.0000      
N0145            72.5000      0.0000      
N0146            73.0000      0.0000      
N0147            73.5000      0.0000      
N0148            74.0000      0.0000      
N0149            74.5000      0.0000      
N0150            75.0000      0.0000      
N0151            75.5000      0.0000      
N0152            76.0000      0.0000      
N0153            76.5000      0.0000      
N0154            77.0000      0.0000      
N0155            77.5000      0.0000      
N0156            78.0000      0.0000      
N0157            78.5000      0.0000      
N0158            79.0000      0.0000      
N0159            79.5000      0.0000      
N0160            80.0000      0.0000      
N0161            80.5000      0.0000      
N0162            81.0000      0.0000      
N0163            81.5000      0.0000      
N0164            82.0000      0.0000      
N0165            82.5000      0.0000      
N0166            83.0000      0.0000      
N0167            83.5000      0.0000      
N0168            84.0000      0.0000      
N0169            84.5000      0.0000      
N0170            85.0000      0.0000      
N0171            85.5000      0.0000      
N0172            86.0000      0.0000      
N0173            86.5000      0.0000      
N0174            87.0000      0.0000      
N0175            87.5000      0.0000      
N0176            88.0000      0.0000      
N0177            88.5000      0.0000      
N0178            89.0000      0.0000      
N0179            89.5000      0.0000      
N0180            90.0000      0.0000      
N0181            90.5000      0.0000      
N0182            91.0000      0.0000      
N0183            91.5000      0.0000      
N0184            92.0000      0.0000      
N0185            92.5000      0.0000      
N0186            93.0000      0.0000      
N0187            93.5000      0.0000      
N0188            94.0000      0.0000      
N0189            94.5000      0.0000      
N0190            95.0000      0.0000      
N0191            95.5000      0.0000      
N0192            96.0000      0.0000      
N0193            96.5000      0.0000      
N0194            97.0000      0.0000      
N0195            97.5000      0.0000      
N0196            98.0000      0.0000      
N0197            98.5000      0.0000      
N0198            99.0000      0.0000      
N0199            99.5000      0.0000      
N0200            100.0000     0.0000      
N0201            100.5000     0.0000      
N0202            101.0000     0.0000      
N0203            101.5000     0.0000      
N0204            102.0000     0.0000      
N0205            102.5000     0.0000      
N0206            103.0000     0.0000      
N0207            103.5000     0.0000      
N0208            104.0000     0.0000      
N0209            104.5000     0.0000      
N0210            105.0000     0.0000      
N0211            105.5000     0.0000      
N0212            106.0000     0.0000      
N0213            106.5000     0.0000      
N0214            107.0000     0.0000      
N0215            107.5000     0.0000      
N0216            108.0000     0.0000      
N0217            108.5000     0.0000      
N0218            109.0000     0.0000      
N0219            109.5000     0.0000      
N0220            110.0000     0.0000      
N0221            110.5000     0.0000      
N0222            111.0000     0.0000      
N0223            111.5000     0.0000      
N0224            112.0000     0.0000      
N0225            112.5000     0.0000      
N0226            113.0000     0.0000      
N0227            113.5000     0.0000      
N0228            114.0000     0.0000      
N0229            114.5000     0.0000      
N0230            115.0000     0.0000      
N0231            115.5000     0.0000      
N0232            116.0000     0.0000      
N0233            116.5000     0.0000      
N0234            117.0000     0.0000      
N0235            117.5000     0.0000      
N0236            118.0000     0.0000      
N0237            118.5000     0.0000      
N0238            119.0000     0.0000      
N0239            119.5000     0.0000      
N0240            120.0000     0.0000      
N0241            120.5000     0.0000      
N0242            121.0000     0.0000      
N0243            121.5000     0.0000      
N0244            122.0000     0.0000      
N0245            122.5000     0.0000      
N0246            123.0000     0.0000      
N0247            123.5000     0.0000      
N0248            124.0000     0.0000      
N0249            124.5000     0.0000      
N0250            125.0000     0.0000      
N0251            125.5000     0.0000      
N0252            126.0000     0.0000      
N0253            126.5000     0.0000      
N0254            127.0000     0.0000      
N0255            127.5000     0.0000      
N0256            128.0000     0.0000      
N0257            128.5000     0.0000      
N0258            129.0000     0.0000      
N0259            129.5000     0.0000      
N0260            130.0000     0.0000      
N0261            130.5000     0.0000      
N0262            131.0000     0.0000      
N0263            131.5000     0.0000      
N0264            132.0000     0.0000      
N0265            132.5000     0.0000      
N0266            133.0000     0.0000      
N0267            133.5000     0.0000      
N0268            134.0000     0.0000      
N0269            134.5000     0.0000      
N0270            135.0000     0.0000      
N0271            135.5000     0.0000      
N0272            136.0000     0.0000      
N0273            136.5000     0.0000      
N0274            137.0000     0.0000      
N0275            137.5000     0.0000      
N0276            138.0000     0.0000      
N0277            138.5000     0.0000      
N0278            139.0000     0.0000      
N0279            139.5000     0.0000      
N0280            140.0000     0.0000      
N0281            140.5000     0.0000      
N0282            141.0000     0.0000      
N0283            141.5000     0.0000      
N0284            142.0000     0.0000      
N0285            142.5000     0.0000      
N0286            143.0000     0.0000      
N0287            143.5000     0.0000      
N0288            144.0000     0.0000      
N0289            144.5000     0.0000      
N0290            145.0000     0.0000      
N0291            145.5000     0.0000      
N0292            146.0000     0.0000      
N0293            146.5000     0.0000      
N0294            147.0000     0.0000      
N0295            147.5000     0.0000      
N0296            148.0000     0.0000      
N0297            148.5000     0.0000      
N0298            149.0000     0.0000      
N0299            149.5000     0.0000      
N0300            150.0000     0.0000      
N0301            150.5000     0.0000      
N0302            151.0000     0.0000      
N0303            151.5000     0.0000      
N0304            152.0000     0.0000      
N0305            152.5000     0.0000      
N0306            153.0000     0.0000      
N0307            153.5000     0.0000      
N0308            154.0000     0.0000      
N0309            154.5000     0.0000      
N0310            155.0000     0.0000      
N0311            155.5000     0.0000      
N0312            156.0000     0.0000      
N0313            156.5000     0.0000      
N0314            157.0000     0.0000      
N0315            157.5000     0.0000      
N0316            158.0000     0.0000      
N0317            158.5000     0.0000      
N0318            159.0000     0.0000      
N0319            159.5000     0.0000      
N0320            160.0000     0.0000      
N0321            160.5000     0.0000      
N0322            161.0000     0.0000      
N0323            161.5000     0.0000      
N0324            162.0000     0.0000      
N0325            162.5000     0.0000      
N0326            163.0000     0.0000      
N0327            163.5000     0.0000      
N0328            164.0000     0.0000      
N0329            164.5000     0.0000      
N0330            165.0000     0.0000      
N0331            165.5000     0.0000      
N0332            166.0000     0.0000      
N0333            166.5000     0.0000      
N0334            167.0000     0.0000      
N0335            167.5000     0.0000      
N0336            168.0000     0.0000      
N0337            168.5000     0.0000      
N0338            169.0000     0.0000      
N0339            169.5000     0.0000      
N0340            170.0000     0.0000      
N0341            170.5000     0.0000      
N0342            171.0000     0.0000      
N0343            171.5000     0.0000      
N0344            172.0000     0.0000      
N0345            172.5000     0.0000      
N0346            173.0000     0.0000      
N0347            173.5000     0.0000      
N0348            174.0000     0.0000      
N0349            174.5000     0.0000      
N0350            175.0000     0.0000      
N0351            175.5000     0.0000      
N0352            176.0000     0.0000      
N0353            176.5000     0.0000      
N0354            177.0000     0.0000      
N0355            177.5000     0.0000      
N0356            178.0000     0.0000      
N0357            178.5000     0.0000      
N0358            179.0000     0.0000      
N0359            179.5000     0.0000      
N0360            180.0000     0.0000      
N0361            180.5000     0.0000      
N0362            181.0000     0.0000      
N0363            181.5000     0.0000      
N0364            182.0000     0.0000      
N0365            182.5000     0.0000      
N0366            183.0000     0.0000      
N0367            183.5000     0.0000      
N0368            184.0000     0.0000      
N0369            184.5000     0.0000      
N0370            185.0000     0.0000      
N0371            185.5000     0.0000      
N0372            186.0000     0.0000      
N0373            186.5000     0.0000      
N0374            187.0000     0.0000      
N0375            187.5000     0.0000      
N0376            188.0000     0.0000      
N0377            188.5000     0.0000      
N0378            189.0000     0.0000      
N0379            189.5000     0.0000      
N0380            190.0000     0.0000      
N0381            190.5000     0.0000      
N0382            191.0000     0.0000      
N0383            191.5000     0.0000      
N0384            192.0000     0.0000      
N0385            192.5000     0.0000      
N0386            193.0000     0.0000      
N0387            193.5000     0.0000      
N0388            194.0000     0.0000      
N0389            194.5000     0.0000      
N0390            195.0000     0.0000      
N0391            195.5000     0.0000      
N0392            196.0000     0.0000      
N0393            196.5000     0.0000      
N0394            197.0000     0.0000      
N0395            197.5000     0.0000      
N0396            198.0000     0.0000      
N0397            198.5000     0.0000      
N0398            199.0000     0.0000      
N0399            199.5000     0.0000      
N0400            200.0000     0.0000      

[REPORT]
INPUT      NO
CONTINUITY YES
FLOWSTATS  YES
NODES ALL
LINKS ALL

