[TITLE]
;; SWASHES lake-at-rest-immersed — Lake at rest with an immersed bump (SWASHES 3.1.1) — 2D strip 25x2 (edge ~1 m) for solver 2d-explicit

[OPTIONS]
FLOW_UNITS           CMS
INFILTRATION         HORTON
FLOW_ROUTING         DYNWAVE
LINK_OFFSETS         DEPTH
MIN_SLOPE            0
ALLOW_PONDING        NO
SKIP_STEADY_STATE    NO
THREADS              1
START_DATE           01/01/2026
START_TIME           00:00:00
REPORT_START_DATE    01/01/2026
REPORT_START_TIME    00:00:00
END_DATE             01/01/2026
END_TIME             0:03:20
REPORT_STEP          0:00:05
WET_STEP             0:00:05
DRY_STEP             0:00:05
ROUTING_STEP         1

[JUNCTIONS]
JD1     0     10        0          0         0

[OUTFALLS]
OD1     0     FREE          NO

[CONDUITS]
CD1     JD1   OD1  100     0.01   0   0   0

[XSECTIONS]
CD1     CIRCULAR  1.0    0      0      0      1

[COORDINATES]
JD1     -5.0   -5.0
OD1     -6.0   -5.0

[2D_OPTIONS]
INTEGRATOR             EXPLICIT
CFL_NUMBER             0.5
REPORT_2D              NO
OUTPUT_FILE            surface.h5
MAX_TIMESTEP           1.0
RAINFALL_MODE          NONE

[2D_VERTICES]
;; UNITS: SI (m)
;;X  Y  Z
0 0 0
1 0 0
2 0 0
3 0 0
4 0 0
5 0 0
6 0 0
7 0 0
8 0 0
9 0 0.15
10 0 0.2
11 0 0.15
12 0 0
13 0 0
14 0 0
15 0 0
16 0 0
17 0 0
18 0 0
19 0 0
20 0 0
21 0 0
22 0 0
23 0 0
24 0 0
25 0 0
0 1 0
1 1 0
2 1 0
3 1 0
4 1 0
5 1 0
6 1 0
7 1 0
8 1 0
9 1 0.15
10 1 0.2
11 1 0.15
12 1 0
13 1 0
14 1 0
15 1 0
16 1 0
17 1 0
18 1 0
19 1 0
20 1 0
21 1 0
22 1 0
23 1 0
24 1 0
25 1 0
0 2 0
1 2 0
2 2 0
3 2 0
4 2 0
5 2 0
6 2 0
7 2 0
8 2 0
9 2 0.15
10 2 0.2
11 2 0.15
12 2 0
13 2 0
14 2 0
15 2 0
16 2 0
17 2 0
18 2 0
19 2 0
20 2 0
21 2 0
22 2 0
23 2 0
24 2 0
25 2 0

[2D_TRIANGLES]
;;V1 V2 V3 MANNINGS_N INIT_DEPTH
0 1 27 1e-08 0.5
0 27 26 1e-08 0.5
1 2 27 1e-08 0.5
2 28 27 1e-08 0.5
2 3 29 1e-08 0.5
2 29 28 1e-08 0.5
3 4 29 1e-08 0.5
4 30 29 1e-08 0.5
4 5 31 1e-08 0.5
4 31 30 1e-08 0.5
5 6 31 1e-08 0.5
6 32 31 1e-08 0.5
6 7 33 1e-08 0.5
6 33 32 1e-08 0.5
7 8 33 1e-08 0.5
8 34 33 1e-08 0.5
8 9 35 1e-08 0.4
8 35 34 1e-08 0.45
9 10 35 1e-08 0.333333
10 36 35 1e-08 0.316667
10 11 37 1e-08 0.333333
10 37 36 1e-08 0.316667
11 12 37 1e-08 0.4
12 38 37 1e-08 0.45
12 13 39 1e-08 0.5
12 39 38 1e-08 0.5
13 14 39 1e-08 0.5
14 40 39 1e-08 0.5
14 15 41 1e-08 0.5
14 41 40 1e-08 0.5
15 16 41 1e-08 0.5
16 42 41 1e-08 0.5
16 17 43 1e-08 0.5
16 43 42 1e-08 0.5
17 18 43 1e-08 0.5
18 44 43 1e-08 0.5
18 19 45 1e-08 0.5
18 45 44 1e-08 0.5
19 20 45 1e-08 0.5
20 46 45 1e-08 0.5
20 21 47 1e-08 0.5
20 47 46 1e-08 0.5
21 22 47 1e-08 0.5
22 48 47 1e-08 0.5
22 23 49 1e-08 0.5
22 49 48 1e-08 0.5
23 24 49 1e-08 0.5
24 50 49 1e-08 0.5
24 25 51 1e-08 0.5
24 51 50 1e-08 0.5
26 27 52 1e-08 0.5
27 53 52 1e-08 0.5
27 28 54 1e-08 0.5
27 54 53 1e-08 0.5
28 29 54 1e-08 0.5
29 55 54 1e-08 0.5
29 30 56 1e-08 0.5
29 56 55 1e-08 0.5
30 31 56 1e-08 0.5
31 57 56 1e-08 0.5
31 32 58 1e-08 0.5
31 58 57 1e-08 0.5
32 33 58 1e-08 0.5
33 59 58 1e-08 0.5
33 34 60 1e-08 0.5
33 60 59 1e-08 0.5
34 35 60 1e-08 0.45
35 61 60 1e-08 0.4
35 36 62 1e-08 0.316667
35 62 61 1e-08 0.333333
36 37 62 1e-08 0.316667
37 63 62 1e-08 0.333333
37 38 64 1e-08 0.45
37 64 63 1e-08 0.4
38 39 64 1e-08 0.5
39 65 64 1e-08 0.5
39 40 66 1e-08 0.5
39 66 65 1e-08 0.5
40 41 66 1e-08 0.5
41 67 66 1e-08 0.5
41 42 68 1e-08 0.5
41 68 67 1e-08 0.5
42 43 68 1e-08 0.5
43 69 68 1e-08 0.5
43 44 70 1e-08 0.5
43 70 69 1e-08 0.5
44 45 70 1e-08 0.5
45 71 70 1e-08 0.5
45 46 72 1e-08 0.5
45 72 71 1e-08 0.5
46 47 72 1e-08 0.5
47 73 72 1e-08 0.5
47 48 74 1e-08 0.5
47 74 73 1e-08 0.5
48 49 74 1e-08 0.5
49 75 74 1e-08 0.5
49 50 76 1e-08 0.5
49 76 75 1e-08 0.5
50 51 76 1e-08 0.5
51 77 76 1e-08 0.5

