[TITLE]
Storage-node LID treatment tutorial
Constant inflow ponds above media and discharges through a surface outlet.

[OPTIONS]
FLOW_UNITS CFS
FLOW_ROUTING DYNWAVE
START_DATE 01/01/2004
END_DATE 01/01/2004
END_TIME 00:05:00
ROUTING_STEP 0.1
VARIABLE_STEP 0
REPORT_STEP 00:01:00
QUALITY_SOLVER LEGACY
[STORAGE]
S 0 2 0 FUNCTIONAL 0 0 100 0 0
[OUTFALLS]
O 0 FREE NO
[ORIFICES]
D S O SIDE 1.5 0.6 NO 0
[XSECTIONS]
D CIRCULAR .2 0 0 0
[POLLUTANTS]
TSS MG/L 0 0 0 0 NO * 0 0 0
[DWF]
S TSS 10
S FLOW 1
[LID_CONTROLS]
Stack NODE
Stack SURFACE 6 .1
Stack MEDIA 12 .45 .2 .08 .01 10 3
Stack AGGREGATE 6 .4 100
[LID_LAYER_TREATMENT]
Stack 1 TSS 25 1 R = 0.2
Stack 2 TSS 10 2 C = C * 0.9

[LID_NODES]
S Stack 10

[LID_NODE_OUTLETS]
D 1 BOTTOM

[COORDINATES]
S 0 0
O 100 20
