[OPTIONS]
FLOW_UNITS CFS
FLOW_ROUTING DYNWAVE
QUALITY_SOLVER LEGACY
OUTFALL_BACKFLOW_QUALITY ZERO
START_DATE 01/01/2004
END_DATE 01/01/2004
END_TIME 00:06:00
ROUTING_STEP 0.1
VARIABLE_STEP 0
REPORT_STEP 00:00:01
[STORAGE]
S 0 2 0 FUNCTIONAL 0 0 10 0 0
[OUTFALLS]
O 0 TIMESERIES Stage NO
[ORIFICES]
D S O SIDE 0 .6 NO 0
[XSECTIONS]
D CIRCULAR .3 0 0 0
[POLLUTANTS]
TRACER MG/L 0 0 0 0 NO * 0 0 0
[INFLOWS]
S FLOW Pulse FLOW 1 1 0
S TRACER Load CONCEN 1 1 0
[LID_CONTROLS]
Stack NODE
Stack SURFACE 6 .1
Stack MEDIA 12 .45 .2 .08 24 10 3
Stack AGGREGATE 6 .4 100
[LID_RICHARDS]
Stack OPTIONS 8 1e-7 1e-5 30
Stack 2 .03 4 1.8 .5 .0001
Stack 3 .01 20 2.5 .5 .0001
[LID_NODES]
S Stack 10
[TIMESERIES]
Stage 00:00:00 0
Stage 00:00:20 2
Stage 00:01:40 2
Stage 00:02:00 0
Stage 00:06:00 0
Pulse 00:00:00 0
Pulse 00:03:00 0
Pulse 00:03:01 .02
Pulse 00:04:00 .02
Pulse 00:04:01 0
Pulse 00:06:00 0
Load 00:00:00 10
Load 00:06:00 10
