[TITLE]
Synthetic node-editor demonstration; uncalibrated CFS model.
Shows external inflows, patterned dry-weather flow, RDII assignment,
pollutant treatment and per-element initial quality.

[OPTIONS]
FLOW_UNITS CFS
INFILTRATION HORTON
FLOW_ROUTING DYNWAVE
START_DATE 01/01/2020
START_TIME 00:00:00
END_DATE 01/02/2020
END_TIME 00:00:00
REPORT_STEP 0:15:00
ROUTING_STEP 10

[RAINGAGES]
RG1 INTENSITY 0:15 1 TIMESERIES RAIN

[JUNCTIONS]
J1 10 5 0 0 0
J2 9 5 0 0 0

[OUTFALLS]
O1 8 FREE NO

[CONDUITS]
C1 J1 J2 400 0.013 0 0 0 0
C2 J2 O1 400 0.013 0 0 0 0

[XSECTIONS]
C1 CIRCULAR 3 0 0 0 1
C2 CIRCULAR 3 0 0 0 1

[POLLUTANTS]
TSS MG/L 0 0 0 0 NO * 0 0 0

[INFLOWS]
J1 FLOW QEXT FLOW 1 1 0
J1 TSS "" CONCEN 1 1 10

[DWF]
J1 FLOW 0.2 "" "" HOURLY ""
J1 TSS 20

[PATTERNS]
HOURLY HOURLY 0.6 0.5 0.5 0.5 0.6 0.8
HOURLY 1.2 1.4 1.5 1.3 1.2 1.1
HOURLY 1.0 1.0 1.0 1.1 1.2 1.4
HOURLY 1.3 1.2 1.0 0.9 0.8 0.7

[HYDROGRAPHS]
UH1 RG1
UH1 ALL SHORT 0.055 1 2 0.08 0.01 0.02
UH1 ALL MEDIUM 0.032 3.5 2 0.08 0.01 0.02
UH1 ALL LONG 0.018 14 2 0.08 0.01 0.02

[RDII]
J1 UH1 5

[TREATMENT]
J1 TSS R = 0.25

[INITIAL_QUALITY]
NODE J1 TSS 5
LINK C1 TSS 2

[TIMESERIES]
QEXT 01/01/2020 00:00 0.1
QEXT 01/01/2020 12:00 0.3
QEXT 01/01/2020 23:59 0.1
RAIN 01/01/2020 00:00 0
RAIN 01/01/2020 00:15 2
RAIN 01/01/2020 00:30 4
RAIN 01/01/2020 00:45 0

[REPORT]
INPUT NO
CONTINUITY YES
FLOWSTATS YES
SUBCATCHMENTS ALL
NODES ALL
LINKS ALL

[MAP]
DIMENSIONS -100 -100 1100 500
Units Feet

[COORDINATES]
J1 0 0
J2 500 0
O1 1000 0

[SYMBOLS]
RG1 0 300
