[TITLE]
T3: square terrain bowl with a central drain
Synthetic teaching geometry; not a calibrated flood-risk model.

[OPTIONS]
FLOW_UNITS CMS
CRS EPSG:3857
FLOW_ROUTING DYNWAVE
INFILTRATION HORTON
LINK_OFFSETS DEPTH
START_DATE 01/01/2024
START_TIME 00:00:00
REPORT_START_DATE 01/01/2024
REPORT_START_TIME 00:00:00
END_DATE 01/01/2024
END_TIME 04:00:00
REPORT_STEP 00:00:30
WET_STEP 00:05:00
DRY_STEP 01:00:00
ROUTING_STEP 00:00:01
SKIP_STEADY_STATE NO
ALLOW_PONDING NO

[EVAPORATION]
CONSTANT 0
DRY_ONLY NO

[RAINGAGES]
RAIN INTENSITY 0:05 1 TIMESERIES STORM

[TIMESERIES]
STORM 00:00 20
STORM 00:05 20
STORM 00:10 20
STORM 00:15 20
STORM 00:20 20
STORM 00:25 20
STORM 00:30 20
STORM 00:35 20
STORM 00:40 20
STORM 00:45 20
STORM 00:50 20
STORM 00:55 20
STORM 01:00 0
STORM 04:00 0
PULSE 00:00 0.03
PULSE 00:25 0.03
PULSE 00:30 0
PULSE 04:00 0

[JUNCTIONS]
J1 96.5 0.5 0 0 0
J2 96.25 1 0 0 0
J3 96 1 0 0 0
J4 95.75 1 0 0 0

[OUTFALLS]
OUT1 95.5 FREE * NO

[CONDUITS]
C1 J1 J2 32.5 0.013 0 0 0 0
C2 J2 J3 32.5 0.013 0 0 0 0
C3 J3 J4 32.5 0.013 0 0 0 0
C4 J4 OUT1 32.5 0.013 0 0 0 0

[XSECTIONS]
C1 CIRCULAR 0.6 0 0 0 1
C2 CIRCULAR 0.6 0 0 0 1
C3 CIRCULAR 0.6 0 0 0 1
C4 CIRCULAR 0.6 0 0 0 1
[REPORT]
INPUT NO
CONTROLS NO
SUBCATCHMENTS ALL
NODES ALL
LINKS ALL

[COORDINATES]
J1 0 0
J2 32.5 0
J3 65 0
J4 97.5 0
OUT1 130 0

[2D_OPTIONS]
INTEGRATOR EXPLICIT
MAX_TIMESTEP 2
CFL_NUMBER 0.7
RAINFALL_MODE SYSTEM
REPORT_2D YES
OUTPUT_FILE terrain_bowl.2d.h5
DRY_DEPTH 0.001
CELL_CLOSURE FLAT
FACE_RECONSTRUCTION MEAN

[2D_VERTICES]
-100 -100 100.000000
-75 -100 100.000000
-50 -100 100.000000
-25 -100 100.000000
0 -100 100.000000
25 -100 100.000000
50 -100 100.000000
75 -100 100.000000
100 -100 100.000000
-100 -75 100.000000
-75 -75 100.000000
-50 -75 99.437500
-25 -75 98.875000
0 -75 98.687500
25 -75 98.875000
50 -75 99.437500
75 -75 100.000000
100 -75 100.000000
-100 -50 100.000000
-75 -50 99.437500
-50 -50 98.500000
-25 -50 97.937500
0 -50 97.750000
25 -50 97.937500
50 -50 98.500000
75 -50 99.437500
100 -50 100.000000
-100 -25 100.000000
-75 -25 98.875000
-50 -25 97.937500
-25 -25 97.375000
0 -25 97.187500
25 -25 97.375000
50 -25 97.937500
75 -25 98.875000
100 -25 100.000000
-100 0 100.000000
-75 0 98.687500
-50 0 97.750000
-25 0 97.187500
0 0 97.000000
25 0 97.187500
50 0 97.750000
75 0 98.687500
100 0 100.000000
-100 25 100.000000
-75 25 98.875000
-50 25 97.937500
-25 25 97.375000
0 25 97.187500
25 25 97.375000
50 25 97.937500
75 25 98.875000
100 25 100.000000
-100 50 100.000000
-75 50 99.437500
-50 50 98.500000
-25 50 97.937500
0 50 97.750000
25 50 97.937500
50 50 98.500000
75 50 99.437500
100 50 100.000000
-100 75 100.000000
-75 75 100.000000
-50 75 99.437500
-25 75 98.875000
0 75 98.687500
25 75 98.875000
50 75 99.437500
75 75 100.000000
100 75 100.000000
-100 100 100.000000
-75 100 100.000000
-50 100 100.000000
-25 100 100.000000
0 100 100.000000
25 100 100.000000
50 100 100.000000
75 100 100.000000
100 100 100.000000

[2D_TRIANGLES]
0 1 10 0.035
0 10 9 0.035
1 2 11 0.035
1 11 10 0.035
2 3 12 0.035
2 12 11 0.035
3 4 13 0.035
3 13 12 0.035
4 5 14 0.035
4 14 13 0.035
5 6 15 0.035
5 15 14 0.035
6 7 16 0.035
6 16 15 0.035
7 8 17 0.035
7 17 16 0.035
9 10 19 0.035
9 19 18 0.035
10 11 20 0.035
10 20 19 0.035
11 12 21 0.035
11 21 20 0.035
12 13 22 0.035
12 22 21 0.035
13 14 23 0.035
13 23 22 0.035
14 15 24 0.035
14 24 23 0.035
15 16 25 0.035
15 25 24 0.035
16 17 26 0.035
16 26 25 0.035
18 19 28 0.035
18 28 27 0.035
19 20 29 0.035
19 29 28 0.035
20 21 30 0.035
20 30 29 0.035
21 22 31 0.035
21 31 30 0.035
22 23 32 0.035
22 32 31 0.035
23 24 33 0.035
23 33 32 0.035
24 25 34 0.035
24 34 33 0.035
25 26 35 0.035
25 35 34 0.035
27 28 37 0.035
27 37 36 0.035
28 29 38 0.035
28 38 37 0.035
29 30 39 0.035
29 39 38 0.035
30 31 40 0.035
30 40 39 0.035
31 32 41 0.035
31 41 40 0.035
32 33 42 0.035
32 42 41 0.035
33 34 43 0.035
33 43 42 0.035
34 35 44 0.035
34 44 43 0.035
36 37 46 0.035
36 46 45 0.035
37 38 47 0.035
37 47 46 0.035
38 39 48 0.035
38 48 47 0.035
39 40 49 0.035
39 49 48 0.035
40 41 50 0.035
40 50 49 0.035
41 42 51 0.035
41 51 50 0.035
42 43 52 0.035
42 52 51 0.035
43 44 53 0.035
43 53 52 0.035
45 46 55 0.035
45 55 54 0.035
46 47 56 0.035
46 56 55 0.035
47 48 57 0.035
47 57 56 0.035
48 49 58 0.035
48 58 57 0.035
49 50 59 0.035
49 59 58 0.035
50 51 60 0.035
50 60 59 0.035
51 52 61 0.035
51 61 60 0.035
52 53 62 0.035
52 62 61 0.035
54 55 64 0.035
54 64 63 0.035
55 56 65 0.035
55 65 64 0.035
56 57 66 0.035
56 66 65 0.035
57 58 67 0.035
57 67 66 0.035
58 59 68 0.035
58 68 67 0.035
59 60 69 0.035
59 69 68 0.035
60 61 70 0.035
60 70 69 0.035
61 62 71 0.035
61 71 70 0.035
63 64 73 0.035
63 73 72 0.035
64 65 74 0.035
64 74 73 0.035
65 66 75 0.035
65 75 74 0.035
66 67 76 0.035
66 76 75 0.035
67 68 77 0.035
67 77 76 0.035
68 69 78 0.035
68 78 77 0.035
69 70 79 0.035
69 79 78 0.035
70 71 80 0.035
70 80 79 0.035

[2D_VERTEX_NODE_MAP]
40 J1 0.65 0.5
